randspg
1.00000
    9.514297684035192    0.000000000000000    0.000000000000000
   -4.757148822298569    8.239623504926712    0.000000000000000
    0.000000000000000    0.000000000000000   14.987014047159631
Se Ga
   16    8
Selective dynamics
Direct
  0.333332985639572  0.666666984558105  0.635692744867994 T T T
  0.666666984558105  0.333332985639572  0.364307255132006 T T T
  0.333332985639572  0.666666984558105  0.893787673617823 T T T
  0.666666984558105  0.333332985639572  0.106212326382177 T T T
  0.306162901712082  0.235636734837576  0.675614037926634 T T T
  0.764363265162424  0.070526166874506  0.675614037926634 T T T
  0.929473833125494  0.693837098287918  0.675614037926634 T T T
  0.235636734837576  0.306162901712082  0.324385962073366 T T T
  0.070526166874506  0.764363265162424  0.324385962073366 T T T
  0.693837098287918  0.929473833125494  0.324385962073366 T T T
  0.458214369517447  0.085336899646527  0.858788552250184 T T T
  0.914663100353473  0.372877469870920  0.858788552250184 T T T
  0.627122530129080  0.541785630482553  0.858788552250184 T T T
  0.085336899646527  0.458214369517447  0.141211447749816 T T T
  0.372877469870920  0.914663100353473  0.141211447749816 T T T
  0.541785630482553  0.627122530129080  0.141211447749816 T T T
  0.000000000000000  0.000000000000000  0.000000000000000 T T T
  0.000000000000000  0.000000000000000  0.500000000000000 T T T
  0.689631949124845  0.000000000000000  0.000000000000000 T T T
  0.000000000000000  0.689631949124845  0.000000000000000 T T T
  0.310368050875155  0.310368050875155  0.000000000000000 T T T
  0.617214977345321  0.000000000000000  0.500000000000000 T T T
  0.000000000000000  0.617214977345321  0.500000000000000 T T T
  0.382785022654679  0.382785022654679  0.500000000000000 T T T
