pair_coeff 1 36 lj/cut 3.0 1.7274526144741178 6.0
pair_coeff 1 54 lj/cut 3.0 1.7274526144741178 6.0
pair_coeff 1 58 lj/cut 3.0 1.7274526144741178 6.0
pair_coeff 1 64 lj/cut 3.0 1.7274526144741178 6.0
pair_coeff 1 73 lj/cut 3.0 1.7274526144741178 6.0
pair_coeff 1 74 lj/cut 3.0 1.7274526144741178 6.0
pair_coeff 2 42 lj/cut 3.0 1.7274526144741178 6.0
pair_coeff 2 60 lj/cut 3.0 1.7274526144741178 6.0
pair_coeff 2 70 lj/cut 3.0 1.7274526144741178 6.0
pair_coeff 2 77 lj/cut 3.0 1.7274526144741178 6.0
pair_coeff 2 83 lj/cut 3.0 1.7274526144741178 6.0
pair_coeff 2 85 lj/cut 3.0 1.7274526144741178 6.0
pair_coeff 3 34 lj/cut 3.0 1.7274526144741178 6.0
pair_coeff 3 49 lj/cut 3.0 1.7274526144741178 6.0
pair_coeff 3 57 lj/cut 3.0 1.7274526144741178 6.0
pair_coeff 3 62 lj/cut 3.0 1.7274526144741178 6.0
pair_coeff 3 68 lj/cut 3.0 1.7274526144741178 6.0
pair_coeff 3 75 lj/cut 3.0 1.7274526144741178 6.0
pair_coeff 4 29 lj/cut 3.0 1.7274526144741178 6.0
pair_coeff 4 40 lj/cut 3.0 1.7274526144741178 6.0
pair_coeff 4 44 lj/cut 3.0 1.7274526144741178 6.0
pair_coeff 4 45 lj/cut 3.0 1.7274526144741178 6.0
pair_coeff 4 46 lj/cut 3.0 1.7274526144741178 6.0
pair_coeff 4 47 lj/cut 3.0 1.7274526144741178 6.0
pair_coeff 5 74 lj/cut 3.0 1.7274526144741178 6.0
pair_coeff 5 80 lj/cut 3.0 1.7274526144741178 6.0
pair_coeff 5 84 lj/cut 3.0 1.7274526144741178 6.0
pair_coeff 5 85 lj/cut 3.0 1.7274526144741178 6.0
pair_coeff 5 86 lj/cut 3.0 1.7274526144741178 6.0
pair_coeff 5 87 lj/cut 3.0 1.7274526144741178 6.0
pair_coeff 6 51 lj/cut 3.0 1.7274526144741178 6.0
pair_coeff 6 52 lj/cut 3.0 1.7274526144741178 6.0
pair_coeff 6 53 lj/cut 3.0 1.7274526144741178 6.0
pair_coeff 6 54 lj/cut 3.0 1.7274526144741178 6.0
pair_coeff 6 55 lj/cut 3.0 1.7274526144741178 6.0
pair_coeff 6 56 lj/cut 3.0 1.7274526144741178 6.0
pair_coeff 7 27 lj/cut 3.0 1.7274526144741178 6.0
pair_coeff 7 29 lj/cut 3.0 1.7274526144741178 6.0
pair_coeff 7 30 lj/cut 3.0 1.7274526144741178 6.0
pair_coeff 7 31 lj/cut 3.0 1.7274526144741178 6.0
pair_coeff 7 32 lj/cut 3.0 1.7274526144741178 6.0
pair_coeff 7 33 lj/cut 3.0 1.7274526144741178 6.0
pair_coeff 8 67 lj/cut 3.0 1.7274526144741178 6.0
pair_coeff 8 75 lj/cut 3.0 1.7274526144741178 6.0
pair_coeff 8 76 lj/cut 3.0 1.7274526144741178 6.0
pair_coeff 8 77 lj/cut 3.0 1.7274526144741178 6.0
pair_coeff 8 78 lj/cut 3.0 1.7274526144741178 6.0
pair_coeff 8 79 lj/cut 3.0 1.7274526144741178 6.0
pair_coeff 9 73 lj/cut 3.0 1.7274526144741178 6.0
pair_coeff 9 76 lj/cut 3.0 1.7274526144741178 6.0
pair_coeff 9 80 lj/cut 3.0 1.7274526144741178 6.0
pair_coeff 9 81 lj/cut 3.0 1.7274526144741178 6.0
pair_coeff 9 82 lj/cut 3.0 1.7274526144741178 6.0
pair_coeff 9 83 lj/cut 3.0 1.7274526144741178 6.0
pair_coeff 10 53 lj/cut 3.0 1.7274526144741178 6.0
pair_coeff 10 59 lj/cut 3.0 1.7274526144741178 6.0
pair_coeff 10 60 lj/cut 3.0 1.7274526144741178 6.0
pair_coeff 10 61 lj/cut 3.0 1.7274526144741178 6.0
pair_coeff 10 62 lj/cut 3.0 1.7274526144741178 6.0
pair_coeff 10 63 lj/cut 3.0 1.7274526144741178 6.0
pair_coeff 11 34 lj/cut 3.0 1.7274526144741178 6.0
pair_coeff 11 35 lj/cut 3.0 1.7274526144741178 6.0
pair_coeff 11 36 lj/cut 3.0 1.7274526144741178 6.0
pair_coeff 11 37 lj/cut 3.0 1.7274526144741178 6.0
pair_coeff 11 38 lj/cut 3.0 1.7274526144741178 6.0
pair_coeff 11 39 lj/cut 3.0 1.7274526144741178 6.0
pair_coeff 12 28 lj/cut 3.0 1.7274526144741178 6.0
pair_coeff 12 33 lj/cut 3.0 1.7274526144741178 6.0
pair_coeff 12 40 lj/cut 3.0 1.7274526144741178 6.0
pair_coeff 12 41 lj/cut 3.0 1.7274526144741178 6.0
pair_coeff 12 42 lj/cut 3.0 1.7274526144741178 6.0
pair_coeff 12 43 lj/cut 3.0 1.7274526144741178 6.0
pair_coeff 13 65 lj/cut 3.0 1.7274526144741178 6.0
pair_coeff 13 72 lj/cut 3.0 1.7274526144741178 6.0
pair_coeff 13 78 lj/cut 3.0 1.7274526144741178 6.0
pair_coeff 13 82 lj/cut 3.0 1.7274526144741178 6.0
pair_coeff 13 84 lj/cut 3.0 1.7274526144741178 6.0
pair_coeff 13 88 lj/cut 3.0 1.7274526144741178 6.0
pair_coeff 14 26 lj/cut 3.0 1.7274526144741178 6.0
pair_coeff 14 50 lj/cut 3.0 1.7274526144741178 6.0
pair_coeff 14 52 lj/cut 3.0 1.7274526144741178 6.0
pair_coeff 14 81 lj/cut 3.0 1.7274526144741178 6.0
pair_coeff 14 87 lj/cut 3.0 1.7274526144741178 6.0
pair_coeff 14 88 lj/cut 3.0 1.7274526144741178 6.0
pair_coeff 15 38 lj/cut 3.0 1.7274526144741178 6.0
pair_coeff 15 64 lj/cut 3.0 1.7274526144741178 6.0
pair_coeff 15 65 lj/cut 3.0 1.7274526144741178 6.0
pair_coeff 15 66 lj/cut 3.0 1.7274526144741178 6.0
pair_coeff 15 67 lj/cut 3.0 1.7274526144741178 6.0
pair_coeff 15 68 lj/cut 3.0 1.7274526144741178 6.0
pair_coeff 16 31 lj/cut 3.0 1.7274526144741178 6.0
pair_coeff 16 43 lj/cut 3.0 1.7274526144741178 6.0
pair_coeff 16 47 lj/cut 3.0 1.7274526144741178 6.0
pair_coeff 16 55 lj/cut 3.0 1.7274526144741178 6.0
pair_coeff 16 63 lj/cut 3.0 1.7274526144741178 6.0
pair_coeff 16 86 lj/cut 3.0 1.7274526144741178 6.0
pair_coeff 17 48 lj/cut 3.0 1.3728749246542629 6.0
pair_coeff 17 56 lj/cut 3.0 1.3728749246542629 6.0
pair_coeff 17 57 lj/cut 3.0 1.3728749246542629 6.0
pair_coeff 17 58 lj/cut 3.0 1.3728749246542629 6.0
pair_coeff 18 45 lj/cut 3.0 1.3728749246542629 6.0
pair_coeff 18 59 lj/cut 3.0 1.3728749246542629 6.0
pair_coeff 18 69 lj/cut 3.0 1.3728749246542629 6.0
pair_coeff 18 70 lj/cut 3.0 1.3728749246542629 6.0
pair_coeff 19 44 lj/cut 3.0 1.3728749246542629 6.0
pair_coeff 19 61 lj/cut 3.0 1.3728749246542629 6.0
pair_coeff 19 69 lj/cut 3.0 1.3728749246542629 6.0
pair_coeff 19 79 lj/cut 3.0 1.3728749246542629 6.0
pair_coeff 20 48 lj/cut 3.0 1.3728749246542629 6.0
pair_coeff 20 49 lj/cut 3.0 1.3728749246542629 6.0
pair_coeff 20 50 lj/cut 3.0 1.3728749246542629 6.0
pair_coeff 20 51 lj/cut 3.0 1.3728749246542629 6.0
pair_coeff 21 37 lj/cut 3.0 1.3728749246542629 6.0
pair_coeff 21 66 lj/cut 3.0 1.3728749246542629 6.0
pair_coeff 21 71 lj/cut 3.0 1.3728749246542629 6.0
pair_coeff 21 72 lj/cut 3.0 1.3728749246542629 6.0
pair_coeff 22 25 lj/cut 3.0 1.3728749246542629 6.0
pair_coeff 22 26 lj/cut 3.0 1.3728749246542629 6.0
pair_coeff 22 27 lj/cut 3.0 1.3728749246542629 6.0
pair_coeff 22 28 lj/cut 3.0 1.3728749246542629 6.0
pair_coeff 23 32 lj/cut 3.0 1.3728749246542629 6.0
pair_coeff 23 35 lj/cut 3.0 1.3728749246542629 6.0
pair_coeff 23 46 lj/cut 3.0 1.3728749246542629 6.0
pair_coeff 23 71 lj/cut 3.0 1.3728749246542629 6.0
pair_coeff 24 25 lj/cut 3.0 1.3728749246542629 6.0
pair_coeff 24 30 lj/cut 3.0 1.3728749246542629 6.0
pair_coeff 24 39 lj/cut 3.0 1.3728749246542629 6.0
pair_coeff 24 41 lj/cut 3.0 1.3728749246542629 6.0
