randspg
1.00000
   13.464194398494520    0.000000000000000    0.000000000000000
    0.000000000000000    9.181704896855987    0.000000000000000
    2.799307509992965    0.000000000000000    8.565187588255403
Ta P
   16    8
Selective dynamics
Direct
  0.728349355182783  0.795656572127047  0.800945026953998 T T T
  0.271650644817217  0.295656572127047  0.199054973046002 T T T
  0.919986562744830  0.953175991506617  0.211586373043670 T T T
  0.080013437255170  0.453175991506617  0.788413626956330 T T T
  0.497389238903824  0.357052601669273  0.918473777021870 T T T
  0.502610761096176  0.857052601669273  0.081526222978130 T T T
  0.094826656314115  0.790733156048711  0.696292366687253 T T T
  0.905173343685885  0.290733156048711  0.303707633312747 T T T
  0.712255296028932  0.404071385582830  0.980550681423579 T T T
  0.287744703971068  0.904071385582830  0.019449318576421 T T T
  0.870717109750313  0.737615476451608  0.426335348462073 T T T
  0.129282890249687  0.237615476451608  0.573664651537927 T T T
  0.493510556964358  0.270631804638770  0.604720250553607 T T T
  0.506489443035642  0.770631804638770  0.395279749446393 T T T
  0.706151329183019  0.058822941453117  0.580016236828457 T T T
  0.293848670816981  0.558822941453117  0.419983763171543 T T T
  0.841155568222491  0.072722455421397  0.924705802971869 T T T
  0.158844431777509  0.572722455421397  0.075294197028131 T T T
  0.279888588951844  0.442208213433630  0.821315138135489 T T T
  0.720111411048155  0.942208213433630  0.178684861864511 T T T
  0.698803794736667  0.442226381670801  0.562723104250484 T T T
  0.301196205263333  0.942226381670801  0.437276895749516 T T T
  0.909517681750211  0.487673438914178  0.593760475656277 T T T
  0.090482318249789  0.987673438914178  0.406239524343723 T T T
