Primitive Cell                          
   1.00000000000000     
     5.3017814731070816    0.0187866789217030   -0.0120295173342627
    -2.7732337216352732    4.5511784032205291   -0.0627380881061216
     4.9943762563855882   -2.1165123010658586   21.1425135426196569
   Si   Ta   O    Li
     6     4    24     4
Selective dynamics
Direct
  0.0388154824961617  0.0366163827010553  0.0340917973900901   T   T   T
  0.0733352161848444  0.2712732153024930  0.1819846410072401   T   T   T
  0.2739923859046414  0.9687267919807638  0.3320467236754112   T   T   T
  0.1268537485864698  0.1124124631432153  0.4763327572552427   T   T   T
  0.4160592942017658  0.8758743973335328  0.6251591346606062   T   T   T
  0.1956938949378895  0.9017270327677025  0.7740283937885053   T   T   T
  0.6699534974043644  0.6217981412874636  0.2584952533853908   T   T   T
  0.7737172874580693  0.4887602822455932  0.5509260961973936   T   T   T
  0.8193420682622801  0.2779830875915721  0.8484556754082604   T   T   T
  0.4207855707191186  0.6633200265929844  0.9549908375354192   T   T   T
  0.3269087921939473  0.3433477803693492  0.0118930645940551   T   T   T
  0.7310604007816792  0.9781293669864510  0.0140618425894274   T   T   T
  0.0799062734841272  0.7398071091973577  0.0171361228045157   T   T   T
  0.9984512244122286  0.0691240939845699  0.1132393352187080   T   T   T
  0.4325945413155949  0.4690697736060798  0.1857003760036022   T   T   T
  0.9442704528351413  0.5010653781084144  0.1941395788352409   T   T   T
  0.9063728635602502  0.0146564191512724  0.2297444682044159   T   T   T
  0.4483124870069659  0.2287816393277495  0.2865381779081915   T   T   T
  0.4093862228495198  0.7459098886076845  0.3168595820859608   T   T   T
  0.9166329187878404  0.7537639028802161  0.3301090005985401   T   T   T
  0.3271201111459590  0.1495809063455198  0.4042221229747227   T   T   T
  0.9191443380165509  0.2625474545427409  0.4843778360501787   T   T   T
  0.9027363891197098  0.7623357265500488  0.4828971988826538   T   T   T
  0.3816856394130284  0.2813808512487697  0.5224029346582384   T   T   T
  0.1673688785829484  0.7158676596176790  0.5774010397420071   T   T   T
  0.6361986752874955  0.2212631721770251  0.6140569645397136   T   T   T
  0.6322887591151840  0.7358174350742388  0.6209237757603461   T   T   T
  0.2137848519354080  0.8499036413591980  0.6953754708682709   T   T   T
  0.5141120383699729  0.1581791885555859  0.7938762360296820   T   T   T
  0.1087623869034076  0.5914558564684143  0.7960094469451207   T   T   T
  0.9265661756302848  0.9818287562298664  0.7919073343498439   T   T   T
  0.6999346413704828  0.5505347921813453  0.9055855588186361   T   T   T
  0.1058676081174355  0.3838414988760874  0.9063867207903655   T   T   T
  0.5345698525584979  0.9820074112395716  0.9090129001444538   T   T   T
  0.8617888954049633  0.6371095200562564  0.1215717156071392   T   T   T
  0.7205619296867312  0.5234720080704776  0.4060525499830661   T   T   T
  0.8017683443475434  0.8074974886117730  0.7010733671570506   T   T   T
  0.7290046768105185  0.3360761203729794  0.9830478846332866   T   T   T
 
  0.00000000E+00  0.00000000E+00  0.00000000E+00
  0.00000000E+00  0.00000000E+00  0.00000000E+00
  0.00000000E+00  0.00000000E+00  0.00000000E+00
  0.00000000E+00  0.00000000E+00  0.00000000E+00
  0.00000000E+00  0.00000000E+00  0.00000000E+00
  0.00000000E+00  0.00000000E+00  0.00000000E+00
  0.00000000E+00  0.00000000E+00  0.00000000E+00
  0.00000000E+00  0.00000000E+00  0.00000000E+00
  0.00000000E+00  0.00000000E+00  0.00000000E+00
  0.00000000E+00  0.00000000E+00  0.00000000E+00
  0.00000000E+00  0.00000000E+00  0.00000000E+00
  0.00000000E+00  0.00000000E+00  0.00000000E+00
  0.00000000E+00  0.00000000E+00  0.00000000E+00
  0.00000000E+00  0.00000000E+00  0.00000000E+00
  0.00000000E+00  0.00000000E+00  0.00000000E+00
  0.00000000E+00  0.00000000E+00  0.00000000E+00
  0.00000000E+00  0.00000000E+00  0.00000000E+00
  0.00000000E+00  0.00000000E+00  0.00000000E+00
  0.00000000E+00  0.00000000E+00  0.00000000E+00
  0.00000000E+00  0.00000000E+00  0.00000000E+00
  0.00000000E+00  0.00000000E+00  0.00000000E+00
  0.00000000E+00  0.00000000E+00  0.00000000E+00
  0.00000000E+00  0.00000000E+00  0.00000000E+00
  0.00000000E+00  0.00000000E+00  0.00000000E+00
  0.00000000E+00  0.00000000E+00  0.00000000E+00
  0.00000000E+00  0.00000000E+00  0.00000000E+00
  0.00000000E+00  0.00000000E+00  0.00000000E+00
  0.00000000E+00  0.00000000E+00  0.00000000E+00
  0.00000000E+00  0.00000000E+00  0.00000000E+00
  0.00000000E+00  0.00000000E+00  0.00000000E+00
  0.00000000E+00  0.00000000E+00  0.00000000E+00
  0.00000000E+00  0.00000000E+00  0.00000000E+00
  0.00000000E+00  0.00000000E+00  0.00000000E+00
  0.00000000E+00  0.00000000E+00  0.00000000E+00
  0.00000000E+00  0.00000000E+00  0.00000000E+00
  0.00000000E+00  0.00000000E+00  0.00000000E+00
  0.00000000E+00  0.00000000E+00  0.00000000E+00
  0.00000000E+00  0.00000000E+00  0.00000000E+00
