Primitive Cell                          
   1.00000000000000     
     8.8178585380394470   -0.0129073469850616    0.0288329868148978
     0.0383354506993276    8.8482107254420601    0.0075055760690948
    -0.0587763146399520   -0.0164877002289680   15.9214377761885988
   Si   Ta   O    Li
    16     8    56     8
Selective dynamics
Direct
  0.4147358320429007  0.6538519757292960  0.0808729625241966   T   T   T
  0.6595811751027654  0.4049084182174525  0.0825628972384393   T   T   T
  0.1514147611232914  0.1609786754762865  0.0821384809985162   T   T   T
  0.9057180942669092  0.9161619265712417  0.0853079573399498   T   T   T
  0.6593590310404451  0.4060202964013158  0.2832962801722445   T   T   T
  0.1515392538553684  0.1644689674935762  0.2815083910219514   T   T   T
  0.4156592949910376  0.6564469350821653  0.2845293592667275   T   T   T
  0.9084320095193021  0.9170465802814931  0.2853039869756913   T   T   T
  0.4081639755056514  0.4164357322818404  0.5819877288688104   T   T   T
  0.9153969789645657  0.1554482902063441  0.5824168995742909   T   T   T
  0.6511909081413023  0.6638727219301970  0.5852513414235645   T   T   T
  0.1591162831823141  0.9052120334432416  0.5834798025548054   T   T   T
  0.4063274151898781  0.4160160550032685  0.7819481621691082   T   T   T
  0.6520205186535506  0.6609506784741370  0.7846206130042717   T   T   T
  0.1602002254529751  0.9044235306040989  0.7842445958978317   T   T   T
  0.9153540340399999  0.1533251777075293  0.7860384278331978   T   T   T
  0.5308063526578550  0.0370819539525797  0.0478106230595117   T   T   T
  0.0367619433214514  0.5403876368056402  0.0717427545741742   T   T   T
  0.5290640656616219  0.0360216631059060  0.2952555952926659   T   T   T
  0.0326992084438587  0.5384642792813565  0.3174507093940804   T   T   T
  0.5322199983148721  0.0378029298585787  0.5494224596352097   T   T   T
  0.0287740202332785  0.5350708147666552  0.5716088631999696   T   T   T
  0.5372279008947203  0.0401933343544059  0.7951376899351104   T   T   T
  0.0312971736894525  0.5366697321916334  0.8190486312813618   T   T   T
  0.1131532363520407  0.3195559584331207  0.0343255393806885   T   T   T
  0.7470312196836773  0.9458977137687015  0.0361948739445097   T   T   T
  0.6171325972420334  0.2395853258544491  0.0457147733134065   T   T   T
  0.2525357707258920  0.5918481400295690  0.0444590205001063   T   T   T
  0.4497592533410284  0.8188629972014354  0.0408162726139096   T   T   T
  0.5434445106190324  0.5342128441916500  0.0458532758591161   T   T   T
  0.0335612087863169  0.0318181846219971  0.0469843118843656   T   T   T
  0.8340562817398762  0.4429039915336119  0.0566490345233959   T   T   T
  0.3255502840983908  0.1108616389274957  0.0637407737576225   T   T   T
  0.9631905738423185  0.7428806007770206  0.0687748317336911   T   T   T
  0.5550487742677674  0.0224812024483256  0.1795940035814283   T   T   T
  0.6382419464896003  0.4019329302861081  0.1828974684212596   T   T   T
  0.4096987861763992  0.6582054806529811  0.1827011751696830   T   T   T
  0.1223759221173921  0.1831015594148866  0.1818883817089940   T   T   T
  0.8872630101300558  0.9425808167636873  0.1850966286947653   T   T   T
  0.0598034625427175  0.5191023536810420  0.1870753945067989   T   T   T
  0.3261553002742374  0.1088460268170266  0.2967025761372000   T   T   T
  0.8305829534513762  0.4540564431608516  0.3083006439719824   T   T   T
  0.9594620432104293  0.7442715986302488  0.3050150226453070   T   T   T
  0.4758426029889407  0.8203615394905270  0.3185246732463867   T   T   T
  0.5391398957714770  0.5316919574752959  0.3199864079860717   T   T   T
  0.6254783898582303  0.2373577417599222  0.3197883031222730   T   T   T
  0.0375272270628813  0.0354743762051086  0.3199666452164749   T   T   T
  0.2519821649088954  0.6191749168741083  0.3265677423465831   T   T   T
  0.1220182560829670  0.3220925891017217  0.3307718999023521   T   T   T
  0.7491705527817700  0.9569575426503008  0.3325240121922661   T   T   T
  0.5321925966300967  0.0382132432729563  0.4309435734958456   T   T   T
  0.0322295187434491  0.5376938968062603  0.4359350246171729   T   T   T
  0.2487842543771137  0.4561277987729255  0.5346474726178840   T   T   T
  0.6215220004604873  0.8213720384237746  0.5358894789081248   T   T   T
  0.7514145053549299  0.1184740131075657  0.5407351793000004   T   T   T
  0.1251674687110835  0.7364191393736093  0.5472213087899718   T   T   T
  0.5370651093084220  0.5347026465882010  0.5469904903543110   T   T   T
  0.0385025990134906  0.0305509086395261  0.5468294471162949   T   T   T
  0.9753709448149621  0.3193258336623970  0.5482204651008828   T   T   T
  0.4588025356165062  0.2434918814334353  0.5624863534774391   T   T   T
  0.3302352955279204  0.9531241569128852  0.5582278558898253   T   T   T
  0.8257931224231712  0.6080778210425137  0.5701125361946922   T   T   T
  0.5597009120845726  0.0186341013725837  0.6798336270287706   T   T   T
  0.3872878190007043  0.4425945812945571  0.6821495923782877   T   T   T
  0.6222068060462647  0.6829417387496335  0.6849122199600828   T   T   T
  0.1387319911694007  0.9013775187660897  0.6839204268004622   T   T   T
  0.9103570116069903  0.1574801366018548  0.6842335953743515   T   T   T
  0.0550435901213646  0.5214589110328660  0.6872576070946934   T   T   T
  0.8261534903017491  0.6103750575073548  0.8027111504654414   T   T   T
  0.3347874641689330  0.9422781812048200  0.8101319006754792   T   T   T
  0.4639756325145683  0.2428021699347980  0.7982758146178668   T   T   T
  0.5342173413380849  0.5319604335437447  0.8200215450133328   T   T   T
  0.0441690715241805  0.0337899942231275  0.8210187644508053   T   T   T
  0.9503954306468714  0.3184226822378378  0.8261269056868059   T   T   T
  0.7531650736099351  0.0916224817224389  0.8224822007314572   T   T   T
  0.1177948112300626  0.7390728064815022  0.8210835504271543   T   T   T
  0.2475919182671262  0.4456151266440997  0.8310079683376017   T   T   T
  0.6141808546948013  0.8194348339580557  0.8325819517410764   T   T   T
  0.5253936005361624  0.0319766044942540  0.9296272240022532   T   T   T
  0.0250785120779895  0.5322319802450721  0.9372456571626060   T   T   T
  0.6341473950455523  0.8242670652664899  0.4132468682052277   T   T   T
  0.7398356727156639  0.1383718465659669  0.4158866056211750   T   T   T
  0.2403486143431977  0.6375343665889375  0.4515249423503391   T   T   T
  0.1335108455295853  0.3238805173820438  0.4534488885721402   T   T   T
  0.4273025859362178  0.8273805721149543  0.9134722914921483   T   T   T
  0.7471521497330187  0.9296980917873299  0.9136542312130445   T   T   T
  0.9263335605598684  0.3279064567244703  0.9533051967205068   T   T   T
  0.2469121871683981  0.4293959305966837  0.9535143830121484   T   T   T
 
  0.00000000E+00  0.00000000E+00  0.00000000E+00
  0.00000000E+00  0.00000000E+00  0.00000000E+00
  0.00000000E+00  0.00000000E+00  0.00000000E+00
  0.00000000E+00  0.00000000E+00  0.00000000E+00
  0.00000000E+00  0.00000000E+00  0.00000000E+00
  0.00000000E+00  0.00000000E+00  0.00000000E+00
  0.00000000E+00  0.00000000E+00  0.00000000E+00
  0.00000000E+00  0.00000000E+00  0.00000000E+00
  0.00000000E+00  0.00000000E+00  0.00000000E+00
  0.00000000E+00  0.00000000E+00  0.00000000E+00
  0.00000000E+00  0.00000000E+00  0.00000000E+00
  0.00000000E+00  0.00000000E+00  0.00000000E+00
  0.00000000E+00  0.00000000E+00  0.00000000E+00
  0.00000000E+00  0.00000000E+00  0.00000000E+00
  0.00000000E+00  0.00000000E+00  0.00000000E+00
  0.00000000E+00  0.00000000E+00  0.00000000E+00
  0.00000000E+00  0.00000000E+00  0.00000000E+00
  0.00000000E+00  0.00000000E+00  0.00000000E+00
  0.00000000E+00  0.00000000E+00  0.00000000E+00
  0.00000000E+00  0.00000000E+00  0.00000000E+00
  0.00000000E+00  0.00000000E+00  0.00000000E+00
  0.00000000E+00  0.00000000E+00  0.00000000E+00
  0.00000000E+00  0.00000000E+00  0.00000000E+00
  0.00000000E+00  0.00000000E+00  0.00000000E+00
  0.00000000E+00  0.00000000E+00  0.00000000E+00
  0.00000000E+00  0.00000000E+00  0.00000000E+00
  0.00000000E+00  0.00000000E+00  0.00000000E+00
  0.00000000E+00  0.00000000E+00  0.00000000E+00
  0.00000000E+00  0.00000000E+00  0.00000000E+00
  0.00000000E+00  0.00000000E+00  0.00000000E+00
  0.00000000E+00  0.00000000E+00  0.00000000E+00
  0.00000000E+00  0.00000000E+00  0.00000000E+00
  0.00000000E+00  0.00000000E+00  0.00000000E+00
  0.00000000E+00  0.00000000E+00  0.00000000E+00
  0.00000000E+00  0.00000000E+00  0.00000000E+00
  0.00000000E+00  0.00000000E+00  0.00000000E+00
  0.00000000E+00  0.00000000E+00  0.00000000E+00
  0.00000000E+00  0.00000000E+00  0.00000000E+00
  0.00000000E+00  0.00000000E+00  0.00000000E+00
  0.00000000E+00  0.00000000E+00  0.00000000E+00
  0.00000000E+00  0.00000000E+00  0.00000000E+00
  0.00000000E+00  0.00000000E+00  0.00000000E+00
  0.00000000E+00  0.00000000E+00  0.00000000E+00
  0.00000000E+00  0.00000000E+00  0.00000000E+00
  0.00000000E+00  0.00000000E+00  0.00000000E+00
  0.00000000E+00  0.00000000E+00  0.00000000E+00
  0.00000000E+00  0.00000000E+00  0.00000000E+00
  0.00000000E+00  0.00000000E+00  0.00000000E+00
  0.00000000E+00  0.00000000E+00  0.00000000E+00
  0.00000000E+00  0.00000000E+00  0.00000000E+00
  0.00000000E+00  0.00000000E+00  0.00000000E+00
  0.00000000E+00  0.00000000E+00  0.00000000E+00
  0.00000000E+00  0.00000000E+00  0.00000000E+00
  0.00000000E+00  0.00000000E+00  0.00000000E+00
  0.00000000E+00  0.00000000E+00  0.00000000E+00
  0.00000000E+00  0.00000000E+00  0.00000000E+00
  0.00000000E+00  0.00000000E+00  0.00000000E+00
  0.00000000E+00  0.00000000E+00  0.00000000E+00
  0.00000000E+00  0.00000000E+00  0.00000000E+00
  0.00000000E+00  0.00000000E+00  0.00000000E+00
  0.00000000E+00  0.00000000E+00  0.00000000E+00
  0.00000000E+00  0.00000000E+00  0.00000000E+00
  0.00000000E+00  0.00000000E+00  0.00000000E+00
  0.00000000E+00  0.00000000E+00  0.00000000E+00
  0.00000000E+00  0.00000000E+00  0.00000000E+00
  0.00000000E+00  0.00000000E+00  0.00000000E+00
  0.00000000E+00  0.00000000E+00  0.00000000E+00
  0.00000000E+00  0.00000000E+00  0.00000000E+00
  0.00000000E+00  0.00000000E+00  0.00000000E+00
  0.00000000E+00  0.00000000E+00  0.00000000E+00
  0.00000000E+00  0.00000000E+00  0.00000000E+00
  0.00000000E+00  0.00000000E+00  0.00000000E+00
  0.00000000E+00  0.00000000E+00  0.00000000E+00
  0.00000000E+00  0.00000000E+00  0.00000000E+00
  0.00000000E+00  0.00000000E+00  0.00000000E+00
  0.00000000E+00  0.00000000E+00  0.00000000E+00
  0.00000000E+00  0.00000000E+00  0.00000000E+00
  0.00000000E+00  0.00000000E+00  0.00000000E+00
  0.00000000E+00  0.00000000E+00  0.00000000E+00
  0.00000000E+00  0.00000000E+00  0.00000000E+00
  0.00000000E+00  0.00000000E+00  0.00000000E+00
  0.00000000E+00  0.00000000E+00  0.00000000E+00
  0.00000000E+00  0.00000000E+00  0.00000000E+00
  0.00000000E+00  0.00000000E+00  0.00000000E+00
  0.00000000E+00  0.00000000E+00  0.00000000E+00
  0.00000000E+00  0.00000000E+00  0.00000000E+00
  0.00000000E+00  0.00000000E+00  0.00000000E+00
  0.00000000E+00  0.00000000E+00  0.00000000E+00
