Primitive Cell                          
   1.00000000000000     
     8.6439210994440074    0.0028208821436076   -0.0037819577732619
    -4.3458064020154454    7.4755942644008906    0.0002111484229302
     0.0198610448136350    0.0834591034156565   24.3375644726728702
   Si   Zr   O    Li
    18    12    72    24
Selective dynamics
Direct
  0.9681630998307540  0.6386972086225811  0.0242562197326919   T   T   T
  0.6796368799798245  0.0575207846399479  0.0244619044124192   T   T   T
  0.3762575336548863  0.3396674040561649  0.0250838426209228   T   T   T
  0.7146771938632313  0.7188896798524596  0.1878226762286630   T   T   T
  0.0064818253509955  0.3086776316698305  0.1887218048494503   T   T   T
  0.3031839408609187  0.0227203015406374  0.1922576412654067   T   T   T
  0.0408809467753315  0.6691619670424842  0.3559246409978840   T   T   T
  0.6284673306320343  0.9736506548029595  0.3591319487106333   T   T   T
  0.3369359848596787  0.3826073754289538  0.3587980843557546   T   T   T
  0.9672125906153894  0.3504901884261855  0.5230497369651417   T   T   T
  0.6584410206415683  0.6314323655045584  0.5234695933707627   T   T   T
  0.3768898202035089  0.0490142110702436  0.5253475725602144   T   T   T
  0.7118476730202019  0.0117731347574903  0.6913500313127514   T   T   T
  0.0073274561628267  0.7210568371298294  0.6921704216579840   T   T   T
  0.2965504141679105  0.3034778238763352  0.6929591784265838   T   T   T
  0.6323114786328929  0.6824189467425725  0.8551091834167508   T   T   T
  0.0440359983473186  0.3846046394962102  0.8557666573853240   T   T   T
  0.3311608385684082  0.9671961846164123  0.8571073244088439   T   T   T
  0.0060010331541065  0.0070102984659073  0.0927929547440058   T   T   T
  0.6756626747083487  0.3497029348622860  0.1208831591469348   T   T   T
  0.3424729076512776  0.6801046441125820  0.2524899899550661   T   T   T
  0.0009148386654445  0.0111390995128531  0.2944268960199423   T   T   T
  0.6677030477206003  0.3412766142290238  0.4277104381886190   T   T   T
  0.3350102590537460  0.6819627702842936  0.4543958689311580   T   T   T
  0.0019087485575255  0.0104431777526557  0.5877713912870348   T   T   T
  0.6726726998559585  0.3474950167519495  0.6304185476739477   T   T   T
  0.3392549173189892  0.6783429947654369  0.7589446306537297   T   T   T
  0.0019785433751025  0.0122246918250255  0.7888510420273462   T   T   T
  0.6712561690864405  0.3486958765992583  0.9188782307922096   T   T   T
  0.3403237364542520  0.6755762268108469  0.9611860113813933   T   T   T
  0.5596292000628225  0.8408785454513108  0.0154834730503310   T   T   T
  0.2616790444721815  0.4433795325477092  0.0159438713451507   T   T   T
  0.1858392777140665  0.7360013747498115  0.0202947372040825   T   T   T
  0.8885762621679092  0.1206264640554124  0.0426717534259780   T   T   T
  0.2370551867594131  0.1339407027493209  0.0458210879793910   T   T   T
  0.9046860704789026  0.7779795047667619  0.0466023872926158   T   T   T
  0.9050975355439164  0.4779283218251535  0.0710826585058300   T   T   T
  0.5791265630798605  0.1055218700165810  0.0747333788337698   T   T   T
  0.5195812321063187  0.4443658884364012  0.0765707846979709   T   T   T
  0.7519135056720003  0.8620156904863592  0.1366336668266470   T   T   T
  0.1028702140384610  0.2520382311817784  0.1398016864504967   T   T   T
  0.1483156188939958  0.9222439448209485  0.1443206023153039   T   T   T
  0.8018488218753888  0.2463268050821625  0.1686109277878671   T   T   T
  0.7814093758594893  0.5800680067919970  0.1681370901654731   T   T   T
  0.4469617360333515  0.2307604359134885  0.1731724413994513   T   T   T
  0.1292086905109997  0.5267436713258178  0.1934141795394240   T   T   T
  0.4966102212846408  0.6019716454431290  0.1993945698572404   T   T   T
  0.3993099017329058  0.9016313439742589  0.1995203495159998   T   T   T
  0.8223463830685063  0.8281399999786601  0.2421836351229558   T   T   T
  0.9990560530891486  0.2208289521304394  0.2488129324496313   T   T   T
  0.2219218700902630  0.0518700989337546  0.2494988970912431   T   T   T
  0.3480141246044965  0.4719095012627790  0.2989711818862517   T   T   T
  0.1217972882344753  0.6366966829968206  0.2992635455724155   T   T   T
  0.5200828336693206  0.8639032904059434  0.3053067613812175   T   T   T
  0.9441969746608692  0.7893314871176571  0.3482958770604228   T   T   T
  0.8465775431032796  0.0897952806312929  0.3483150721415882   T   T   T
  0.2128315264239973  0.1650031364818929  0.3549431045395295   T   T   T
  0.8967443170072755  0.4618212841520304  0.3759609518486471   T   T   T
  0.5626186479968283  0.1121565317319053  0.3799613096087882   T   T   T
  0.5401773602602304  0.4435575241967200  0.3804456379499470   T   T   T
  0.1967669260852247  0.7715261256831241  0.4038463995331227   T   T   T
  0.2405384636875496  0.4411153435154915  0.4074944957398614   T   T   T
  0.5909173376284969  0.8300912030746019  0.4106776519069513   T   T   T
  0.8241482291816240  0.2441263746197819  0.4714054742709521   T   T   T
  0.7630193558461329  0.5842773187408454  0.4744509913628718   T   T   T
  0.4342333413330337  0.2034005883117587  0.4765632790320922   T   T   T
  0.1051615601524745  0.5556672130971663  0.5011462310723687   T   T   T
  0.4502691204496969  0.5663083046141608  0.5040727626706385   T   T   T
  0.4453747570828739  0.9078056418609535  0.5060716084378569   T   T   T
  0.1589283154942933  0.9523997791528487  0.5306057432533322   T   T   T
  0.7736015722082712  0.8502980094220050  0.5317862397489890   T   T   T
  0.0835458546856316  0.2484678198418493  0.5324395508932938   T   T   T
  0.8596673305709288  0.3516803646061391  0.5769075736460323   T   T   T
  0.6259944142816281  0.5168694153282587  0.5796351583537600   T   T   T
  0.4813094133852900  0.1266108219815791  0.5830383902576344   T   T   T
  0.7888674695977187  0.0064187245378662  0.6302285549250115   T   T   T
  0.2024265463154222  0.2210834071303083  0.6332824318309207   T   T   T
  0.0017372216409370  0.8260986863475708  0.6373732414913889   T   T   T
  0.8913491312316282  0.5038883187641616  0.6833207671451973   T   T   T
  0.6129848421965889  0.1306294654917508  0.6861345462478070   T   T   T
  0.5139014333647935  0.4048216569395464  0.6856633658771898   T   T   T
  0.2120690739499622  0.7812754621734683  0.7110514756198754   T   T   T
  0.5710250100931020  0.8076958365471114  0.7118098308683471   T   T   T
  0.2350639060658253  0.4459079895347813  0.7129141590697401   T   T   T
  0.8711200039418330  0.1099844824987954  0.7377437066316048   T   T   T
  0.2428056477397647  0.1487143989080622  0.7412254023114002   T   T   T
  0.9075318855649002  0.7641094933607064  0.7438336231116480   T   T   T
  0.4890229514836051  0.5786781754429100  0.8041108642017036   T   T   T
  0.4299603694701446  0.9183033000830250  0.8071256921821188   T   T   T
  0.1031430684406729  0.5421219293831570  0.8081750768137397   T   T   T
  0.1071561545856525  0.2437145211277283  0.8350563528273369   T   T   T
  0.7706848187853481  0.8892241782158692  0.8355865675412772   T   T   T
  0.1215131701540528  0.9027410123271409  0.8400115905283698   T   T   T
  0.8258287062672878  0.2871986568481901  0.8611842288696749   T   T   T
  0.7471756100075879  0.5790834502758884  0.8650757181037321   T   T   T
  0.4515491851221896  0.1844390259314821  0.8654307471331322   T   T   T
  0.5248831919215888  0.6786568649370821  0.9100466336946909   T   T   T
  0.3042075502278010  0.8540974462280317  0.9137185168360347   T   T   T
  0.1312020425337508  0.4618494726019620  0.9161428437929189   T   T   T
  0.8811110778526441  0.5645839799890808  0.9639611816018956   T   T   T
  0.7098421593603703  0.1736220004536193  0.9684345556976268   T   T   T
  0.4855644430240460  0.3429433223900631  0.9709889506000664   T   T   T
  0.3212169783396490  0.9619008422537689  0.0570416982256390   T   T   T
  0.6486057145678004  0.7065841439782616  0.0594741160059868   T   T   T
  0.0652717644076688  0.3781495417522791  0.0711690772387357   T   T   T
  0.3659922324075779  0.4077910248178114  0.1430095287252087   T   T   T
  0.6212265592339676  0.9906002161665626  0.1528726681631483   T   T   T
  0.0368797905539395  0.6650614401036066  0.1591803623168957   T   T   T
  0.4079977534373569  0.3433123951731574  0.2438664314075822   T   T   T
  0.9383015222492759  0.3517871595629174  0.3027338882719448   T   T   T
  0.3073258488951112  0.0286294594977718  0.3882137998187645   T   T   T
  0.7202496101493310  0.6992950751598315  0.3925178384276364   T   T   T
  0.9777089700994850  0.2859882040484933  0.4038020095862578   T   T   T
  0.2771550072928690  0.3091535879416938  0.4758409198167683   T   T   T
  0.7050634361735959  0.9814478923891201  0.4782040256004905   T   T   T
  0.0193919678566630  0.7253688363911905  0.4931813167854742   T   T   T
  0.3381667080147608  0.4111881353664160  0.5776085746372033   T   T   T
  0.5897773764514227  0.9646304281024953  0.5815998684236021   T   T   T
  0.9814368486949760  0.3678325684756985  0.7232293441157012   T   T   T
  0.3889219772592938  0.0359041773990967  0.7278670658760618   T   T   T
  0.6444192439111447  0.6262003585809808  0.7291084681106028   T   T   T
  0.9413629833499684  0.6402847505335316  0.8094747708340932   T   T   T
  0.3623782887691220  0.3198200172222982  0.8216252787566560   T   T   T
  0.6890349615924336  0.0623311546215888  0.8228690609163962   T   T   T
  0.0174753015231772  0.7533742701459047  0.9103056569437626   T   T   T
  0.9921597682532806  0.2718217347633640  0.9697281810420009   T   T   T
 
  0.00000000E+00  0.00000000E+00  0.00000000E+00
  0.00000000E+00  0.00000000E+00  0.00000000E+00
  0.00000000E+00  0.00000000E+00  0.00000000E+00
  0.00000000E+00  0.00000000E+00  0.00000000E+00
  0.00000000E+00  0.00000000E+00  0.00000000E+00
  0.00000000E+00  0.00000000E+00  0.00000000E+00
  0.00000000E+00  0.00000000E+00  0.00000000E+00
  0.00000000E+00  0.00000000E+00  0.00000000E+00
  0.00000000E+00  0.00000000E+00  0.00000000E+00
  0.00000000E+00  0.00000000E+00  0.00000000E+00
  0.00000000E+00  0.00000000E+00  0.00000000E+00
  0.00000000E+00  0.00000000E+00  0.00000000E+00
  0.00000000E+00  0.00000000E+00  0.00000000E+00
  0.00000000E+00  0.00000000E+00  0.00000000E+00
  0.00000000E+00  0.00000000E+00  0.00000000E+00
  0.00000000E+00  0.00000000E+00  0.00000000E+00
  0.00000000E+00  0.00000000E+00  0.00000000E+00
  0.00000000E+00  0.00000000E+00  0.00000000E+00
  0.00000000E+00  0.00000000E+00  0.00000000E+00
  0.00000000E+00  0.00000000E+00  0.00000000E+00
  0.00000000E+00  0.00000000E+00  0.00000000E+00
  0.00000000E+00  0.00000000E+00  0.00000000E+00
  0.00000000E+00  0.00000000E+00  0.00000000E+00
  0.00000000E+00  0.00000000E+00  0.00000000E+00
  0.00000000E+00  0.00000000E+00  0.00000000E+00
  0.00000000E+00  0.00000000E+00  0.00000000E+00
  0.00000000E+00  0.00000000E+00  0.00000000E+00
  0.00000000E+00  0.00000000E+00  0.00000000E+00
  0.00000000E+00  0.00000000E+00  0.00000000E+00
  0.00000000E+00  0.00000000E+00  0.00000000E+00
  0.00000000E+00  0.00000000E+00  0.00000000E+00
  0.00000000E+00  0.00000000E+00  0.00000000E+00
  0.00000000E+00  0.00000000E+00  0.00000000E+00
  0.00000000E+00  0.00000000E+00  0.00000000E+00
  0.00000000E+00  0.00000000E+00  0.00000000E+00
  0.00000000E+00  0.00000000E+00  0.00000000E+00
  0.00000000E+00  0.00000000E+00  0.00000000E+00
  0.00000000E+00  0.00000000E+00  0.00000000E+00
  0.00000000E+00  0.00000000E+00  0.00000000E+00
  0.00000000E+00  0.00000000E+00  0.00000000E+00
  0.00000000E+00  0.00000000E+00  0.00000000E+00
  0.00000000E+00  0.00000000E+00  0.00000000E+00
  0.00000000E+00  0.00000000E+00  0.00000000E+00
  0.00000000E+00  0.00000000E+00  0.00000000E+00
  0.00000000E+00  0.00000000E+00  0.00000000E+00
  0.00000000E+00  0.00000000E+00  0.00000000E+00
  0.00000000E+00  0.00000000E+00  0.00000000E+00
  0.00000000E+00  0.00000000E+00  0.00000000E+00
  0.00000000E+00  0.00000000E+00  0.00000000E+00
  0.00000000E+00  0.00000000E+00  0.00000000E+00
  0.00000000E+00  0.00000000E+00  0.00000000E+00
  0.00000000E+00  0.00000000E+00  0.00000000E+00
  0.00000000E+00  0.00000000E+00  0.00000000E+00
  0.00000000E+00  0.00000000E+00  0.00000000E+00
  0.00000000E+00  0.00000000E+00  0.00000000E+00
  0.00000000E+00  0.00000000E+00  0.00000000E+00
  0.00000000E+00  0.00000000E+00  0.00000000E+00
  0.00000000E+00  0.00000000E+00  0.00000000E+00
  0.00000000E+00  0.00000000E+00  0.00000000E+00
  0.00000000E+00  0.00000000E+00  0.00000000E+00
  0.00000000E+00  0.00000000E+00  0.00000000E+00
  0.00000000E+00  0.00000000E+00  0.00000000E+00
  0.00000000E+00  0.00000000E+00  0.00000000E+00
  0.00000000E+00  0.00000000E+00  0.00000000E+00
  0.00000000E+00  0.00000000E+00  0.00000000E+00
  0.00000000E+00  0.00000000E+00  0.00000000E+00
  0.00000000E+00  0.00000000E+00  0.00000000E+00
  0.00000000E+00  0.00000000E+00  0.00000000E+00
  0.00000000E+00  0.00000000E+00  0.00000000E+00
  0.00000000E+00  0.00000000E+00  0.00000000E+00
  0.00000000E+00  0.00000000E+00  0.00000000E+00
  0.00000000E+00  0.00000000E+00  0.00000000E+00
  0.00000000E+00  0.00000000E+00  0.00000000E+00
  0.00000000E+00  0.00000000E+00  0.00000000E+00
  0.00000000E+00  0.00000000E+00  0.00000000E+00
  0.00000000E+00  0.00000000E+00  0.00000000E+00
  0.00000000E+00  0.00000000E+00  0.00000000E+00
  0.00000000E+00  0.00000000E+00  0.00000000E+00
  0.00000000E+00  0.00000000E+00  0.00000000E+00
  0.00000000E+00  0.00000000E+00  0.00000000E+00
  0.00000000E+00  0.00000000E+00  0.00000000E+00
  0.00000000E+00  0.00000000E+00  0.00000000E+00
  0.00000000E+00  0.00000000E+00  0.00000000E+00
  0.00000000E+00  0.00000000E+00  0.00000000E+00
  0.00000000E+00  0.00000000E+00  0.00000000E+00
  0.00000000E+00  0.00000000E+00  0.00000000E+00
  0.00000000E+00  0.00000000E+00  0.00000000E+00
  0.00000000E+00  0.00000000E+00  0.00000000E+00
  0.00000000E+00  0.00000000E+00  0.00000000E+00
  0.00000000E+00  0.00000000E+00  0.00000000E+00
  0.00000000E+00  0.00000000E+00  0.00000000E+00
  0.00000000E+00  0.00000000E+00  0.00000000E+00
  0.00000000E+00  0.00000000E+00  0.00000000E+00
  0.00000000E+00  0.00000000E+00  0.00000000E+00
  0.00000000E+00  0.00000000E+00  0.00000000E+00
  0.00000000E+00  0.00000000E+00  0.00000000E+00
  0.00000000E+00  0.00000000E+00  0.00000000E+00
  0.00000000E+00  0.00000000E+00  0.00000000E+00
  0.00000000E+00  0.00000000E+00  0.00000000E+00
  0.00000000E+00  0.00000000E+00  0.00000000E+00
  0.00000000E+00  0.00000000E+00  0.00000000E+00
  0.00000000E+00  0.00000000E+00  0.00000000E+00
  0.00000000E+00  0.00000000E+00  0.00000000E+00
  0.00000000E+00  0.00000000E+00  0.00000000E+00
  0.00000000E+00  0.00000000E+00  0.00000000E+00
  0.00000000E+00  0.00000000E+00  0.00000000E+00
  0.00000000E+00  0.00000000E+00  0.00000000E+00
  0.00000000E+00  0.00000000E+00  0.00000000E+00
  0.00000000E+00  0.00000000E+00  0.00000000E+00
  0.00000000E+00  0.00000000E+00  0.00000000E+00
  0.00000000E+00  0.00000000E+00  0.00000000E+00
  0.00000000E+00  0.00000000E+00  0.00000000E+00
  0.00000000E+00  0.00000000E+00  0.00000000E+00
  0.00000000E+00  0.00000000E+00  0.00000000E+00
  0.00000000E+00  0.00000000E+00  0.00000000E+00
  0.00000000E+00  0.00000000E+00  0.00000000E+00
  0.00000000E+00  0.00000000E+00  0.00000000E+00
  0.00000000E+00  0.00000000E+00  0.00000000E+00
  0.00000000E+00  0.00000000E+00  0.00000000E+00
  0.00000000E+00  0.00000000E+00  0.00000000E+00
  0.00000000E+00  0.00000000E+00  0.00000000E+00
  0.00000000E+00  0.00000000E+00  0.00000000E+00
  0.00000000E+00  0.00000000E+00  0.00000000E+00
  0.00000000E+00  0.00000000E+00  0.00000000E+00
  0.00000000E+00  0.00000000E+00  0.00000000E+00
  0.00000000E+00  0.00000000E+00  0.00000000E+00
