Primitive Cell                          
   1.00000000000000     
     6.5804025879995738    0.0020457702561204    0.0115033362360749
    -0.0009670152869456   13.6884558280933479   -0.0379714001060401
     3.2876903463255096    0.0032870068306056    7.1438859897140121
   Nb   P    O    Li
     8     4    32     4
Selective dynamics
Direct
  0.5033210339666851  0.4896239058532004  0.0744744585653478   T   T   T
  0.0032766102712074  0.9896228090878338  0.0745777988530989   T   T   T
  0.2430091223929978  0.7383952782881735  0.0803485374984874   T   T   T
  0.7430755706472496  0.2384228495810419  0.0804423695060166   T   T   T
  0.7431832981389235  0.7397467150443973  0.5739448903215774   T   T   T
  0.2432667181155210  0.2397373713097650  0.5740251073349967   T   T   T
  0.4974555672741943  0.4885097963765261  0.5801194994113459   T   T   T
  0.9973869033690121  0.9885054348226561  0.5801929444527048   T   T   T
  0.5010362119948439  0.8698919021743308  0.3094429236829370   T   T   T
  0.0011147631867203  0.3698996225941613  0.3095181946344141   T   T   T
  0.0093633426834714  0.6198461488137852  0.8094499418667453   T   T   T
  0.5093650475855043  0.1198403468156641  0.8096485330254950   T   T   T
  0.6930826483363361  0.3731679249843154  0.0177354185512471   T   T   T
  0.1930225036485638  0.8731737066554359  0.0177435515549789   T   T   T
  0.8505451257831069  0.1053373206350443  0.0405028149732942   T   T   T
  0.3502697209889405  0.6052772233261408  0.0405327609659096   T   T   T
  0.2257913626054062  0.4046218730918625  0.1537147577279043   T   T   T
  0.7256661336149861  0.9046604747280824  0.1536709782915722   T   T   T
  0.4114168799572084  0.7852972773679028  0.2254007459922676   T   T   T
  0.9114256604076587  0.2853321827559725  0.2255263011306496   T   T   T
  0.9653034874689297  0.7133066696091603  0.2704663330711838   T   T   T
  0.4653945807359321  0.2132812167828675  0.2705410798978249   T   T   T
  0.4738098112943661  0.5133299794416999  0.3108812796720883   T   T   T
  0.9735532692632987  0.0133374796286105  0.3110416290408153   T   T   T
  0.8373570916211932  0.4571768487337167  0.3689846666335796   T   T   T
  0.3371919484464314  0.9571518944577662  0.3689327381268299   T   T   T
  0.5288413298285519  0.8286233137869985  0.4817576250012436   T   T   T
  0.0289886195210300  0.3286497087379772  0.4818118023002995   T   T   T
  0.6096997383451495  0.6228643852948395  0.5176317182734422   T   T   T
  0.1096771969881871  0.1228686941819106  0.5177227686987464   T   T   T
  0.4297189973323441  0.3549944673346488  0.5400313177083333   T   T   T
  0.9295730853403938  0.8550070494668986  0.5401223173837053   T   T   T
  0.9400300108019763  0.6546974681432900  0.6540668577722002   T   T   T
  0.4399670397172741  0.1546999495291672  0.6542575952984464   T   T   T
  0.1828924225197071  0.5352620083903830  0.7251596314953233   T   T   T
  0.6828318661573434  0.0352509364974622  0.7253025436197618   T   T   T
  0.5809336876744524  0.4628835976105918  0.7718368798682675   T   T   T
  0.0809153109607976  0.9628766889833003  0.7718567654711777   T   T   T
  0.5332823789168089  0.7632944158299182  0.8097172992345349   T   T   T
  0.0333813393103384  0.2633480551980298  0.8097750447369236   T   T   T
  0.1127901627257373  0.7071190868823720  0.8692243041272647   T   T   T
  0.6128709209519911  0.2071284468901382  0.8693036960220581   T   T   T
  0.8086226214624332  0.5785336099201785  0.9817896214552704   T   T   T
  0.3086568335979294  0.0785364803432813  0.9819833511406344   T   T   T
  0.8039803199129807  0.5908597326190801  0.2426313603026671   T   T   T
  0.3039500558246644  0.0908845612094069  0.2427600657045303   T   T   T
  0.7723484376448155  0.3403207814158762  0.7430628586781793   T   T   T
  0.2721967721344356  0.8403086317050992  0.7430058839736944   T   T   T
 
  0.00000000E+00  0.00000000E+00  0.00000000E+00
  0.00000000E+00  0.00000000E+00  0.00000000E+00
  0.00000000E+00  0.00000000E+00  0.00000000E+00
  0.00000000E+00  0.00000000E+00  0.00000000E+00
  0.00000000E+00  0.00000000E+00  0.00000000E+00
  0.00000000E+00  0.00000000E+00  0.00000000E+00
  0.00000000E+00  0.00000000E+00  0.00000000E+00
  0.00000000E+00  0.00000000E+00  0.00000000E+00
  0.00000000E+00  0.00000000E+00  0.00000000E+00
  0.00000000E+00  0.00000000E+00  0.00000000E+00
  0.00000000E+00  0.00000000E+00  0.00000000E+00
  0.00000000E+00  0.00000000E+00  0.00000000E+00
  0.00000000E+00  0.00000000E+00  0.00000000E+00
  0.00000000E+00  0.00000000E+00  0.00000000E+00
  0.00000000E+00  0.00000000E+00  0.00000000E+00
  0.00000000E+00  0.00000000E+00  0.00000000E+00
  0.00000000E+00  0.00000000E+00  0.00000000E+00
  0.00000000E+00  0.00000000E+00  0.00000000E+00
  0.00000000E+00  0.00000000E+00  0.00000000E+00
  0.00000000E+00  0.00000000E+00  0.00000000E+00
  0.00000000E+00  0.00000000E+00  0.00000000E+00
  0.00000000E+00  0.00000000E+00  0.00000000E+00
  0.00000000E+00  0.00000000E+00  0.00000000E+00
  0.00000000E+00  0.00000000E+00  0.00000000E+00
  0.00000000E+00  0.00000000E+00  0.00000000E+00
  0.00000000E+00  0.00000000E+00  0.00000000E+00
  0.00000000E+00  0.00000000E+00  0.00000000E+00
  0.00000000E+00  0.00000000E+00  0.00000000E+00
  0.00000000E+00  0.00000000E+00  0.00000000E+00
  0.00000000E+00  0.00000000E+00  0.00000000E+00
  0.00000000E+00  0.00000000E+00  0.00000000E+00
  0.00000000E+00  0.00000000E+00  0.00000000E+00
  0.00000000E+00  0.00000000E+00  0.00000000E+00
  0.00000000E+00  0.00000000E+00  0.00000000E+00
  0.00000000E+00  0.00000000E+00  0.00000000E+00
  0.00000000E+00  0.00000000E+00  0.00000000E+00
  0.00000000E+00  0.00000000E+00  0.00000000E+00
  0.00000000E+00  0.00000000E+00  0.00000000E+00
  0.00000000E+00  0.00000000E+00  0.00000000E+00
  0.00000000E+00  0.00000000E+00  0.00000000E+00
  0.00000000E+00  0.00000000E+00  0.00000000E+00
  0.00000000E+00  0.00000000E+00  0.00000000E+00
  0.00000000E+00  0.00000000E+00  0.00000000E+00
  0.00000000E+00  0.00000000E+00  0.00000000E+00
  0.00000000E+00  0.00000000E+00  0.00000000E+00
  0.00000000E+00  0.00000000E+00  0.00000000E+00
  0.00000000E+00  0.00000000E+00  0.00000000E+00
  0.00000000E+00  0.00000000E+00  0.00000000E+00
