Primitive Cell                          
   1.00000000000000     
    10.3168924273821574    0.0074940460783702    0.0026345001251940
    -5.1274645308607978    8.9017297706835556   -0.0016545410783626
    -0.0015096758682107    0.0085099307870538    9.9425925309661238
   Ta   Si   O    Li
    12     6    48    12
Selective dynamics
Direct
  0.6727043901049541  0.3489570856115236  0.0687809303035110   T   T   T
  0.0270924723690840  0.0229096306586456  0.0716295128369211   T   T   T
  0.3555759162746881  0.6990621182593557  0.0785789368552301   T   T   T
  0.6838442892614296  0.8578649948723864  0.3182235562880109   T   T   T
  0.1902745078770423  0.3679859213106838  0.3161741670157028   T   T   T
  0.1904871282177680  0.8549230162086943  0.3243501081084403   T   T   T
  0.3553895350125060  0.6902945230544901  0.5597110675573589   T   T   T
  0.0156645881661106  0.0265395659518077  0.5737277978742981   T   T   T
  0.6863765966112325  0.3584431525242451  0.5839327499877527   T   T   T
  0.3594445405761064  0.1981744746555592  0.8201107575956215   T   T   T
  0.8503903769974954  0.6832398614550783  0.8274880959488513   T   T   T
  0.8498101348902836  0.1982303915798482  0.8319093754146323   T   T   T
  0.9353195924598268  0.4859052826880728  0.3256977946635331   T   T   T
  0.5606822557392306  0.1056126423151795  0.3254646953108420   T   T   T
  0.5610945854407916  0.4862740244624248  0.3252345853955134   T   T   T
  0.1031734424868347  0.5643248657551752  0.8160866162862277   T   T   T
  0.4789535982647664  0.9445233517394556  0.8192088023533373   T   T   T
  0.4796988344414501  0.5674011418326614  0.8213926435980525   T   T   T
  0.1292963878250859  0.2138151613768784  0.1748498621342875   T   T   T
  0.2084354538895994  0.7285276317151812  0.1741058629192480   T   T   T
  0.3098076862448593  0.5150720240369040  0.1724476271852993   T   T   T
  0.5323763360553286  0.8287011738288541  0.1758294566257774   T   T   T
  0.8346817148920067  0.9705751263869260  0.1820729389270710   T   T   T
  0.8551361241188147  0.5116678998895097  0.1937206262192817   T   T   T
  0.0806801625930191  0.9090492001568293  0.1930640278787408   T   T   T
  0.6766072582966487  0.2010225508169938  0.2038793322270749   T   T   T
  0.5521142981538887  0.3770793230552485  0.2033306935687875   T   T   T
  0.3910412074583647  0.0154224800228420  0.2567664392860678   T   T   T
  0.6521427298071529  0.6582883084724713  0.2590352097342716   T   T   T
  0.0199309986183636  0.3990888625291902  0.2583580860874761   T   T   T
  0.3874740011494993  0.4068106870321841  0.3818034748201313   T   T   T
  0.6399599250785855  0.0119966140919132  0.3885276605498973   T   T   T
  0.0315811719756454  0.6568335306817730  0.3902779773633824   T   T   T
  0.0872316409078948  0.2089257866195240  0.4557234012656366   T   T   T
  0.8490208483399542  0.3796641364350606  0.4550068131071328   T   T   T
  0.8360625729241065  0.9013817466905607  0.4599251594440901   T   T   T
  0.5405190285699248  0.1894739478076133  0.4573993247356043   T   T   T
  0.6607540324303685  0.5029787381523505  0.4584225076510080   T   T   T
  0.3205437715333517  0.8339874597792090  0.4630786016643214   T   T   T
  0.5325215812282451  0.7256652281021516  0.4632795016880564   T   T   T
  0.2086690651633560  0.5116181130351478  0.4636534394000975   T   T   T
  0.1428012570277204  0.9560634096362364  0.4672855625901917   T   T   T
  0.8282268831923503  0.5388122158058835  0.6782715408023776   T   T   T
  0.8990682890696249  0.0942015955736792  0.6779644574393160   T   T   T
  0.5079501557097643  0.3262910322744190  0.6816127316637193   T   T   T
  0.2057166207978369  0.1496582037397260  0.6846059118640113   T   T   T
  0.1883215507633196  0.6709062872545246  0.6877353208795114   T   T   T
  0.7211705563180004  0.2176439150330012  0.6839007933639820   T   T   T
  0.3775575657161596  0.5473439878269986  0.6882076854567103   T   T   T
  0.4947479060310869  0.8574162475220177  0.6879835400965675   T   T   T
  0.9554832461561844  0.8421745411141615  0.6913636472156384   T   T   T
  0.4013368358362399  0.0393171133824382  0.7559561698813297   T   T   T
  0.0090055373245832  0.3918200912455134  0.7557605979146516   T   T   T
  0.6522552805289976  0.6442732144713759  0.7620323453388451   T   T   T
  0.6522209865671513  0.0240163634316346  0.8815830041567239   T   T   T
  0.0090449751974617  0.6395934764514095  0.8853827619424450   T   T   T
  0.3904847423511129  0.3951084051558240  0.8874216301862532   T   T   T
  0.4949009176262109  0.6820077615415485  0.9417934493973377   T   T   T
  0.1888738221566584  0.5462258112157983  0.9483035837713345   T   T   T
  0.3725129990396354  0.8614662009699998  0.9497116588068550   T   T   T
  0.9564938810603962  0.1386671404538262  0.9536058717734406   T   T   T
  0.2025945141478047  0.0818688480593650  0.9592964689446006   T   T   T
  0.5032589791293418  0.2099121265183754  0.9682914094021768   T   T   T
  0.7263662046492954  0.5295668988121278  0.9693511906574557   T   T   T
  0.8867390937355282  0.8329548982736057  0.9712742035680151   T   T   T
  0.8276634037515649  0.3152451968852006  0.9778580776503034   T   T   T
  0.2246817760453581  0.3729869419844221  0.0121816683314080   T   T   T
  0.3467962479964228  0.0141553969180492  0.0592066700022471   T   T   T
  0.0267739240767924  0.5634027623934941  0.0684821770442170   T   T   T
  0.8129177374309791  0.6747059703029379  0.1339408204218486   T   T   T
  0.8671214976919543  0.2073827282626439  0.1488921815185194   T   T   T
  0.0083734486097882  0.3464383519224867  0.5598505075739624   T   T   T
  0.3553191383922254  0.0293833928521039  0.5604481445523533   T   T   T
  0.6901475579259113  0.6871801667323822  0.5622600157190973   T   T   T
  0.3481788344703958  0.3622310823002763  0.5801785498117980   T   T   T
  0.0309493590193668  0.7045013581211705  0.5865173940443498   T   T   T
  0.6825114223368374  0.0203641607815257  0.5876031514625808   T   T   T
  0.6816326402881714  0.8734165918661461  0.0008583335752519   T   T   T
 
  0.00000000E+00  0.00000000E+00  0.00000000E+00
  0.00000000E+00  0.00000000E+00  0.00000000E+00
  0.00000000E+00  0.00000000E+00  0.00000000E+00
  0.00000000E+00  0.00000000E+00  0.00000000E+00
  0.00000000E+00  0.00000000E+00  0.00000000E+00
  0.00000000E+00  0.00000000E+00  0.00000000E+00
  0.00000000E+00  0.00000000E+00  0.00000000E+00
  0.00000000E+00  0.00000000E+00  0.00000000E+00
  0.00000000E+00  0.00000000E+00  0.00000000E+00
  0.00000000E+00  0.00000000E+00  0.00000000E+00
  0.00000000E+00  0.00000000E+00  0.00000000E+00
  0.00000000E+00  0.00000000E+00  0.00000000E+00
  0.00000000E+00  0.00000000E+00  0.00000000E+00
  0.00000000E+00  0.00000000E+00  0.00000000E+00
  0.00000000E+00  0.00000000E+00  0.00000000E+00
  0.00000000E+00  0.00000000E+00  0.00000000E+00
  0.00000000E+00  0.00000000E+00  0.00000000E+00
  0.00000000E+00  0.00000000E+00  0.00000000E+00
  0.00000000E+00  0.00000000E+00  0.00000000E+00
  0.00000000E+00  0.00000000E+00  0.00000000E+00
  0.00000000E+00  0.00000000E+00  0.00000000E+00
  0.00000000E+00  0.00000000E+00  0.00000000E+00
  0.00000000E+00  0.00000000E+00  0.00000000E+00
  0.00000000E+00  0.00000000E+00  0.00000000E+00
  0.00000000E+00  0.00000000E+00  0.00000000E+00
  0.00000000E+00  0.00000000E+00  0.00000000E+00
  0.00000000E+00  0.00000000E+00  0.00000000E+00
  0.00000000E+00  0.00000000E+00  0.00000000E+00
  0.00000000E+00  0.00000000E+00  0.00000000E+00
  0.00000000E+00  0.00000000E+00  0.00000000E+00
  0.00000000E+00  0.00000000E+00  0.00000000E+00
  0.00000000E+00  0.00000000E+00  0.00000000E+00
  0.00000000E+00  0.00000000E+00  0.00000000E+00
  0.00000000E+00  0.00000000E+00  0.00000000E+00
  0.00000000E+00  0.00000000E+00  0.00000000E+00
  0.00000000E+00  0.00000000E+00  0.00000000E+00
  0.00000000E+00  0.00000000E+00  0.00000000E+00
  0.00000000E+00  0.00000000E+00  0.00000000E+00
  0.00000000E+00  0.00000000E+00  0.00000000E+00
  0.00000000E+00  0.00000000E+00  0.00000000E+00
  0.00000000E+00  0.00000000E+00  0.00000000E+00
  0.00000000E+00  0.00000000E+00  0.00000000E+00
  0.00000000E+00  0.00000000E+00  0.00000000E+00
  0.00000000E+00  0.00000000E+00  0.00000000E+00
  0.00000000E+00  0.00000000E+00  0.00000000E+00
  0.00000000E+00  0.00000000E+00  0.00000000E+00
  0.00000000E+00  0.00000000E+00  0.00000000E+00
  0.00000000E+00  0.00000000E+00  0.00000000E+00
  0.00000000E+00  0.00000000E+00  0.00000000E+00
  0.00000000E+00  0.00000000E+00  0.00000000E+00
  0.00000000E+00  0.00000000E+00  0.00000000E+00
  0.00000000E+00  0.00000000E+00  0.00000000E+00
  0.00000000E+00  0.00000000E+00  0.00000000E+00
  0.00000000E+00  0.00000000E+00  0.00000000E+00
  0.00000000E+00  0.00000000E+00  0.00000000E+00
  0.00000000E+00  0.00000000E+00  0.00000000E+00
  0.00000000E+00  0.00000000E+00  0.00000000E+00
  0.00000000E+00  0.00000000E+00  0.00000000E+00
  0.00000000E+00  0.00000000E+00  0.00000000E+00
  0.00000000E+00  0.00000000E+00  0.00000000E+00
  0.00000000E+00  0.00000000E+00  0.00000000E+00
  0.00000000E+00  0.00000000E+00  0.00000000E+00
  0.00000000E+00  0.00000000E+00  0.00000000E+00
  0.00000000E+00  0.00000000E+00  0.00000000E+00
  0.00000000E+00  0.00000000E+00  0.00000000E+00
  0.00000000E+00  0.00000000E+00  0.00000000E+00
  0.00000000E+00  0.00000000E+00  0.00000000E+00
  0.00000000E+00  0.00000000E+00  0.00000000E+00
  0.00000000E+00  0.00000000E+00  0.00000000E+00
  0.00000000E+00  0.00000000E+00  0.00000000E+00
  0.00000000E+00  0.00000000E+00  0.00000000E+00
  0.00000000E+00  0.00000000E+00  0.00000000E+00
  0.00000000E+00  0.00000000E+00  0.00000000E+00
  0.00000000E+00  0.00000000E+00  0.00000000E+00
  0.00000000E+00  0.00000000E+00  0.00000000E+00
  0.00000000E+00  0.00000000E+00  0.00000000E+00
  0.00000000E+00  0.00000000E+00  0.00000000E+00
  0.00000000E+00  0.00000000E+00  0.00000000E+00
