Primitive Cell                          
   1.00000000000000     
     8.5708573462630415    0.0082455627694586   -0.0509794483477739
    -0.1791566072065441    9.8748384412337380    0.0517036270667839
     2.5002180999057173   -0.1836477799435133    9.6726277895974704
   Nb   Si   O    Li
     8     8    40     8
Selective dynamics
Direct
  0.7600501329697877  0.1812876136689709  0.0183154831080898   T   T   T
  0.3688771860262321  0.0141938177824841  0.1900869359770567   T   T   T
  0.8404080702877934  0.5085035011591756  0.2180142669474208   T   T   T
  0.4526073292318884  0.6901459078355856  0.3735593761104639   T   T   T
  0.7705182108776754  0.2616247771155074  0.5223951840708594   T   T   T
  0.3815615842568718  0.4415393837720814  0.6783107363885748   T   T   T
  0.8573408926392077  0.9368027333745701  0.7145318475317737   T   T   T
  0.4606080478966490  0.7717074344789339  0.8863706254427584   T   T   T
  0.4023801441266457  0.2974485157435325  0.9963964422539391   T   T   T
  0.2527933147896988  0.5516597923996542  0.1438227427334695   T   T   T
  0.9678933232020555  0.0615337737461559  0.2467074564874139   T   T   T
  0.8145854065257083  0.8121411362703910  0.3936100330049754   T   T   T
  0.4049761759009485  0.1395531235815994  0.5033198532848928   T   T   T
  0.2513860310674403  0.8857006576432056  0.6523121117771709   T   T   T
  0.9745203198739958  0.3978932410774263  0.7547862619220709   T   T   T
  0.8191357676538402  0.6528662886585792  0.9088784838933961   T   T   T
  0.4261314982479334  0.9228431198389515  0.0080104864234158   T   T   T
  0.9147888992552993  0.6424531982629986  0.0296130446702847   T   T   T
  0.2559089253365130  0.6795491012765495  0.0401597291145706   T   T   T
  0.3966783932285622  0.4455852270064540  0.0771924420542618   T   T   T
  0.7906642117125458  0.3687605543144699  0.1078147626961083   T   T   T
  0.9445159617399241  0.1328375468600740  0.1060982160591308   T   T   T
  0.3130280530365894  0.1841254837558495  0.1047260526795668   T   T   T
  0.5947327979110284  0.1022887037933486  0.1499173099888935   T   T   T
  0.0807571429499419  0.4671049400057043  0.1604958756347159   T   T   T
  0.1345235340949387  0.9702316833308871  0.2137180035805386   T   T   T
  0.6270468465241663  0.6020845377214030  0.2544039705063739   T   T   T
  0.4343178619668819  0.8546617079172094  0.2704113832938617   T   T   T
  0.8284076077041505  0.9427270862693220  0.2910698497632325   T   T   T
  0.2739876393732104  0.6074127971757619  0.2953458568962475   T   T   T
  0.9211964450101107  0.6889712536997976  0.3069979272679717   T   T   T
  0.9582501532351415  0.1727075055383551  0.3713562806213915   T   T   T
  0.7984073671539562  0.4133909546252639  0.3860836935062366   T   T   T
  0.3166138124285638  0.1107247362514698  0.3790914082766008   T   T   T
  0.5972424302093557  0.1703881194244516  0.4529822665246996   T   T   T
  0.6206218860170907  0.7881034402627805  0.4557884512566019   T   T   T
  0.4228634103243181  0.5358800875424095  0.5136884158575583   T   T   T
  0.8989981016868143  0.8432316693651458  0.5221881522564757   T   T   T
  0.2596250101998550  0.7763745404811218  0.5282659206680265   T   T   T
  0.9487521845354294  0.3408416625431698  0.6051546171949127   T   T   T
  0.3935527865282609  0.0053526172205238  0.6047025668368136   T   T   T
  0.3005544032483485  0.2601072427049971  0.5967210600151134   T   T   T
  0.7772110024359407  0.0900558829761096  0.6271875282500901   T   T   T
  0.6005127671238810  0.3567889971491596  0.6526820675988816   T   T   T
  0.0901619657669954  0.9822771098696563  0.6876117504248640   T   T   T
  0.1427165047783774  0.4859965095942727  0.7392802035796180   T   T   T
  0.6245590400336880  0.8537089119867289  0.7479879467700101   T   T   T
  0.9082013976577130  0.7670798295923547  0.7997588888759282   T   T   T
  0.2799683230495660  0.8158295222649414  0.7915357355648780   T   T   T
  0.4388459786329690  0.5770086403148440  0.7937682329849736   T   T   T
  0.8296145794856855  0.5071973428814829  0.8188031546785339   T   T   T
  0.9689150728000868  0.2728607431625534  0.8600901956707716   T   T   T
  0.3094467641583165  0.3064971597998394  0.8723083037445676   T   T   T
  0.7978974609802307  0.0306771985804843  0.8904572166772269   T   T   T
  0.5977260258015917  0.2739983220798976  0.9373560301790249   T   T   T
  0.6255190447291028  0.6800561263051037  0.9573431376992119   T   T   T
  0.0733842368101918  0.3054006566408844  0.0257437046538556   T   T   T
  0.0478001730862019  0.7789429284970737  0.1273135649373316   T   T   T
  0.0894041756071289  0.7111429759938090  0.4372830275126063   T   T   T
  0.1303131256072163  0.2408804570795908  0.4569207610420989   T   T   T
  0.6062969670644520  0.9535930683697202  0.5838518486084965   T   T   T
  0.1762208961679761  0.1736726506126871  0.7797792123788625   T   T   T
  0.6140479373205565  0.4561305226468377  0.8361958245016723   T   T   T
  0.1501611051528116  0.6439647933626063  0.8776499480085747   T   T   T
 
  0.00000000E+00  0.00000000E+00  0.00000000E+00
  0.00000000E+00  0.00000000E+00  0.00000000E+00
  0.00000000E+00  0.00000000E+00  0.00000000E+00
  0.00000000E+00  0.00000000E+00  0.00000000E+00
  0.00000000E+00  0.00000000E+00  0.00000000E+00
  0.00000000E+00  0.00000000E+00  0.00000000E+00
  0.00000000E+00  0.00000000E+00  0.00000000E+00
  0.00000000E+00  0.00000000E+00  0.00000000E+00
  0.00000000E+00  0.00000000E+00  0.00000000E+00
  0.00000000E+00  0.00000000E+00  0.00000000E+00
  0.00000000E+00  0.00000000E+00  0.00000000E+00
  0.00000000E+00  0.00000000E+00  0.00000000E+00
  0.00000000E+00  0.00000000E+00  0.00000000E+00
  0.00000000E+00  0.00000000E+00  0.00000000E+00
  0.00000000E+00  0.00000000E+00  0.00000000E+00
  0.00000000E+00  0.00000000E+00  0.00000000E+00
  0.00000000E+00  0.00000000E+00  0.00000000E+00
  0.00000000E+00  0.00000000E+00  0.00000000E+00
  0.00000000E+00  0.00000000E+00  0.00000000E+00
  0.00000000E+00  0.00000000E+00  0.00000000E+00
  0.00000000E+00  0.00000000E+00  0.00000000E+00
  0.00000000E+00  0.00000000E+00  0.00000000E+00
  0.00000000E+00  0.00000000E+00  0.00000000E+00
  0.00000000E+00  0.00000000E+00  0.00000000E+00
  0.00000000E+00  0.00000000E+00  0.00000000E+00
  0.00000000E+00  0.00000000E+00  0.00000000E+00
  0.00000000E+00  0.00000000E+00  0.00000000E+00
  0.00000000E+00  0.00000000E+00  0.00000000E+00
  0.00000000E+00  0.00000000E+00  0.00000000E+00
  0.00000000E+00  0.00000000E+00  0.00000000E+00
  0.00000000E+00  0.00000000E+00  0.00000000E+00
  0.00000000E+00  0.00000000E+00  0.00000000E+00
  0.00000000E+00  0.00000000E+00  0.00000000E+00
  0.00000000E+00  0.00000000E+00  0.00000000E+00
  0.00000000E+00  0.00000000E+00  0.00000000E+00
  0.00000000E+00  0.00000000E+00  0.00000000E+00
  0.00000000E+00  0.00000000E+00  0.00000000E+00
  0.00000000E+00  0.00000000E+00  0.00000000E+00
  0.00000000E+00  0.00000000E+00  0.00000000E+00
  0.00000000E+00  0.00000000E+00  0.00000000E+00
  0.00000000E+00  0.00000000E+00  0.00000000E+00
  0.00000000E+00  0.00000000E+00  0.00000000E+00
  0.00000000E+00  0.00000000E+00  0.00000000E+00
  0.00000000E+00  0.00000000E+00  0.00000000E+00
  0.00000000E+00  0.00000000E+00  0.00000000E+00
  0.00000000E+00  0.00000000E+00  0.00000000E+00
  0.00000000E+00  0.00000000E+00  0.00000000E+00
  0.00000000E+00  0.00000000E+00  0.00000000E+00
  0.00000000E+00  0.00000000E+00  0.00000000E+00
  0.00000000E+00  0.00000000E+00  0.00000000E+00
  0.00000000E+00  0.00000000E+00  0.00000000E+00
  0.00000000E+00  0.00000000E+00  0.00000000E+00
  0.00000000E+00  0.00000000E+00  0.00000000E+00
  0.00000000E+00  0.00000000E+00  0.00000000E+00
  0.00000000E+00  0.00000000E+00  0.00000000E+00
  0.00000000E+00  0.00000000E+00  0.00000000E+00
  0.00000000E+00  0.00000000E+00  0.00000000E+00
  0.00000000E+00  0.00000000E+00  0.00000000E+00
  0.00000000E+00  0.00000000E+00  0.00000000E+00
  0.00000000E+00  0.00000000E+00  0.00000000E+00
  0.00000000E+00  0.00000000E+00  0.00000000E+00
  0.00000000E+00  0.00000000E+00  0.00000000E+00
  0.00000000E+00  0.00000000E+00  0.00000000E+00
  0.00000000E+00  0.00000000E+00  0.00000000E+00
