Primitive Cell                          
   1.00000000000000     
     9.7843049210737849    0.0557002045846927    0.0158842140039389
     0.0908961511341623   10.1320948661460442   -0.0507308973943939
     0.0739689367100322   -0.0879827906105632   12.7584168142502783
   Nb   Si   O    Li
    16     8    64    16
Selective dynamics
Direct
  0.5581117815362688  0.4709196774608557  0.0153008341165162   T   T   T
  0.1124566640942248  0.9675843577063787  0.0300225518033059   T   T   T
  0.6048580270754584  0.9306389041507614  0.0929995631107587   T   T   T
  0.0564244198239621  0.4291506396694800  0.0900121683840638   T   T   T
  0.3065398874665064  0.6966635352082093  0.1750804376329782   T   T   T
  0.3557059012626169  0.2110254750221117  0.1783343952064911   T   T   T
  0.8536668697390866  0.1993298118609701  0.4386542559756634   T   T   T
  0.8006403020847586  0.6864886244269073  0.4402282602287357   T   T   T
  0.5489488677324488  0.9732027207548128  0.5286192010438526   T   T   T
  0.1074612882298709  0.4751307202522383  0.5344113701410933   T   T   T
  0.0499637765497525  0.9268857080594657  0.5884525002493106   T   T   T
  0.5973381844023038  0.4282649009840256  0.6005435174681537   T   T   T
  0.3528193781680216  0.7137537092063724  0.6792395197057672   T   T   T
  0.2953010278387467  0.2010712490146958  0.6779371961505518   T   T   T
  0.8614473609361539  0.6965972129576699  0.9381074323173237   T   T   T
  0.8076606025041428  0.1852742771403015  0.9413046505889042   T   T   T
  0.7644375552740641  0.4405052599968897  0.2507089910548146   T   T   T
  0.8854590034289203  0.9338509568733286  0.2545298415165433   T   T   T
  0.2712473731549210  0.9587976080418983  0.3603268710972642   T   T   T
  0.3870103244710847  0.4642094133201624  0.3654525608445240   T   T   T
  0.7643440346939840  0.9384420035894721  0.7528579614458906   T   T   T
  0.8850855481203368  0.4343865941810705  0.7555199480170387   T   T   T
  0.3926567433654569  0.9699216018562709  0.8616071050791163   T   T   T
  0.2777617805932309  0.4634597460542125  0.8612305452081728   T   T   T
  0.7343763403218091  0.8180608893276045  0.0230546744668132   T   T   T
  0.9365079788731876  0.3133550778114440  0.0253787491048598   T   T   T
  0.9431890912339469  0.6045108111414592  0.0482849314014047   T   T   T
  0.7309172810903917  0.1037468712863259  0.0567480622693068   T   T   T
  0.2119868741157944  0.7931736037276167  0.0671492617029230   T   T   T
  0.4363334577526530  0.3035205115470845  0.0749394654599982   T   T   T
  0.4207643479451306  0.5823617281954725  0.0823773826413046   T   T   T
  0.2354833701200860  0.0818549354711138  0.0925778498324590   T   T   T
  0.6684450264654060  0.4364312726540120  0.1448544758216315   T   T   T
  0.9885037743361522  0.9575181902305729  0.1518222943567125   T   T   T
  0.4814944057053978  0.8199078820812247  0.1562920427127636   T   T   T
  0.1582948020678501  0.3079164291867897  0.1752014522821241   T   T   T
  0.1572145916627079  0.5792662506482884  0.1878194184995081   T   T   T
  0.5053297855813668  0.0882536749395442  0.1887320620635649   T   T   T
  0.9245809485645893  0.4593180727792188  0.2163147150761660   T   T   T
  0.7258557531203422  0.9345595987625686  0.2206771843176085   T   T   T
  0.2343178907793444  0.8303499984243103  0.2859276922464602   T   T   T
  0.4248741583481888  0.3306058595000607  0.2934045516759127   T   T   T
  0.7408208587652254  0.2965139806987906  0.3054608204963429   T   T   T
  0.9215993031258662  0.7916752277932204  0.3069261341989318   T   T   T
  0.4026150945441671  0.6073943395448680  0.3101863703752770   T   T   T
  0.2412824537807126  0.1052802315017871  0.3123572208028946   T   T   T
  0.9150203588572410  0.0667753814282719  0.3260408759850009   T   T   T
  0.7339935800348698  0.5675558526183906  0.3293969600751723   T   T   T
  0.4310777200102933  0.9389935214270011  0.3920912475552711   T   T   T
  0.2290604952203097  0.4397343635231366  0.4003238368641249   T   T   T
  0.9968611450516462  0.3157844856797496  0.4231813908412079   T   T   T
  0.6636787054270954  0.8181763911649753  0.4393177860533370   T   T   T
  0.6481971853326272  0.0899868966534072  0.4408666326346662   T   T   T
  0.0027538715058526  0.5853140511654615  0.4408393625732501   T   T   T
  0.1676643217526603  0.9403489482853118  0.4630213245518675   T   T   T
  0.4918912767469195  0.4480031193307070  0.4661637221953185   T   T   T
  0.9320930299662535  0.8077944903935688  0.5273153820958854   T   T   T
  0.7265120972389454  0.3104726777374438  0.5259070273364799   T   T   T
  0.9376600850424310  0.1007345924397498  0.5454070034635663   T   T   T
  0.7295421952405334  0.5966915718722845  0.5522105774848711   T   T   T
  0.4330099311019779  0.8055566807012369  0.5670505141237285   T   T   T
  0.2108499965953001  0.2996093358768306  0.5686282676247458   T   T   T
  0.4098737258244753  0.0878061855946868  0.5808716378991505   T   T   T
  0.2322488480712721  0.5902035331375899  0.5897608653795388   T   T   T
  0.9825571284673060  0.4480787616689312  0.6496658205223653   T   T   T
  0.6633224303535030  0.9571512823048565  0.6507712691443430   T   T   T
  0.1703023737500047  0.8245076698585478  0.6707710399112727   T   T   T
  0.4991094683279442  0.5877004166870137  0.6741315885175680   T   T   T
  0.4851618962490605  0.3125022127496706  0.6707287542483371   T   T   T
  0.1475005283638069  0.0871499231988437  0.6921128156945358   T   T   T
  0.9228013579423688  0.9569353484440484  0.7161625042732140   T   T   T
  0.7251175311117493  0.4467606096066490  0.7209500790393975   T   T   T
  0.2317544489082337  0.3372071432910673  0.7871861970295200   T   T   T
  0.4300937502256446  0.8363092680967839  0.7887303267916792   T   T   T
  0.4047485685466015  0.1113405173912270  0.8040833885999987   T   T   T
  0.7414087534548983  0.7932595135389207  0.8038176614016876   T   T   T
  0.9170429748623548  0.2900540252241086  0.8065121537623625   T   T   T
  0.2626565038757747  0.6106765957404576  0.8132000208162964   T   T   T
  0.9126667052759885  0.5622021246256068  0.8321631925797988   T   T   T
  0.7380687133970341  0.0635153825760071  0.8349138357611707   T   T   T
  0.4363887919289482  0.4344593068223404  0.8931962840727152   T   T   T
  0.2351845855789776  0.9425487877174206  0.8987045551983925   T   T   T
  0.0017908980098866  0.8198092471515537  0.9246436795163930   T   T   T
  0.6708233926243565  0.3175068427736747  0.9362356658123616   T   T   T
  0.0062427293718059  0.0873215119229442  0.9432778661659142   T   T   T
  0.6600607670283978  0.5979667611394177  0.9479093333678463   T   T   T
  0.4989380398615992  0.9552063916737481  0.9608257003669038   T   T   T
  0.1745060044393441  0.4472490695068885  0.9655670561297995   T   T   T
  0.6589974961467391  0.2224915714073461  0.1689371653272858   T   T   T
  0.9640020559186624  0.6619993202212697  0.1965132121359829   T   T   T
  0.0709169450470668  0.1349387910644282  0.2322949980114828   T   T   T
  0.5847453119954196  0.9953354287363325  0.3126119110060586   T   T   T
  0.0678657588697220  0.4591500192377467  0.3174633820330115   T   T   T
  0.0860928573320479  0.7617137985371727  0.3887963870285560   T   T   T
  0.5779409787633369  0.2745734451144131  0.3962464128232597   T   T   T
  0.4772813864556582  0.7431269432575647  0.4043632336246432   T   T   T
  0.1942202698156805  0.2418044903637551  0.4190626689252994   T   T   T
  0.9562358325508882  0.1634010580205896  0.6930872567048212   T   T   T
  0.6952364557142161  0.6520435818624293  0.7046757000396013   T   T   T
  0.0740055693917014  0.9581602851199307  0.8117521400226693   T   T   T
  0.5255803746384871  0.2722474476743884  0.8272314390630129   T   T   T
  0.0859549415789260  0.2667206016840709  0.8879137130130417   T   T   T
  0.5779366295746655  0.7708906094333443  0.8922845817069600   T   T   T
  0.1922747595879102  0.7394324898337814  0.9118695555924390   T   T   T
 
  0.00000000E+00  0.00000000E+00  0.00000000E+00
  0.00000000E+00  0.00000000E+00  0.00000000E+00
  0.00000000E+00  0.00000000E+00  0.00000000E+00
  0.00000000E+00  0.00000000E+00  0.00000000E+00
  0.00000000E+00  0.00000000E+00  0.00000000E+00
  0.00000000E+00  0.00000000E+00  0.00000000E+00
  0.00000000E+00  0.00000000E+00  0.00000000E+00
  0.00000000E+00  0.00000000E+00  0.00000000E+00
  0.00000000E+00  0.00000000E+00  0.00000000E+00
  0.00000000E+00  0.00000000E+00  0.00000000E+00
  0.00000000E+00  0.00000000E+00  0.00000000E+00
  0.00000000E+00  0.00000000E+00  0.00000000E+00
  0.00000000E+00  0.00000000E+00  0.00000000E+00
  0.00000000E+00  0.00000000E+00  0.00000000E+00
  0.00000000E+00  0.00000000E+00  0.00000000E+00
  0.00000000E+00  0.00000000E+00  0.00000000E+00
  0.00000000E+00  0.00000000E+00  0.00000000E+00
  0.00000000E+00  0.00000000E+00  0.00000000E+00
  0.00000000E+00  0.00000000E+00  0.00000000E+00
  0.00000000E+00  0.00000000E+00  0.00000000E+00
  0.00000000E+00  0.00000000E+00  0.00000000E+00
  0.00000000E+00  0.00000000E+00  0.00000000E+00
  0.00000000E+00  0.00000000E+00  0.00000000E+00
  0.00000000E+00  0.00000000E+00  0.00000000E+00
  0.00000000E+00  0.00000000E+00  0.00000000E+00
  0.00000000E+00  0.00000000E+00  0.00000000E+00
  0.00000000E+00  0.00000000E+00  0.00000000E+00
  0.00000000E+00  0.00000000E+00  0.00000000E+00
  0.00000000E+00  0.00000000E+00  0.00000000E+00
  0.00000000E+00  0.00000000E+00  0.00000000E+00
  0.00000000E+00  0.00000000E+00  0.00000000E+00
  0.00000000E+00  0.00000000E+00  0.00000000E+00
  0.00000000E+00  0.00000000E+00  0.00000000E+00
  0.00000000E+00  0.00000000E+00  0.00000000E+00
  0.00000000E+00  0.00000000E+00  0.00000000E+00
  0.00000000E+00  0.00000000E+00  0.00000000E+00
  0.00000000E+00  0.00000000E+00  0.00000000E+00
  0.00000000E+00  0.00000000E+00  0.00000000E+00
  0.00000000E+00  0.00000000E+00  0.00000000E+00
  0.00000000E+00  0.00000000E+00  0.00000000E+00
  0.00000000E+00  0.00000000E+00  0.00000000E+00
  0.00000000E+00  0.00000000E+00  0.00000000E+00
  0.00000000E+00  0.00000000E+00  0.00000000E+00
  0.00000000E+00  0.00000000E+00  0.00000000E+00
  0.00000000E+00  0.00000000E+00  0.00000000E+00
  0.00000000E+00  0.00000000E+00  0.00000000E+00
  0.00000000E+00  0.00000000E+00  0.00000000E+00
  0.00000000E+00  0.00000000E+00  0.00000000E+00
  0.00000000E+00  0.00000000E+00  0.00000000E+00
  0.00000000E+00  0.00000000E+00  0.00000000E+00
  0.00000000E+00  0.00000000E+00  0.00000000E+00
  0.00000000E+00  0.00000000E+00  0.00000000E+00
  0.00000000E+00  0.00000000E+00  0.00000000E+00
  0.00000000E+00  0.00000000E+00  0.00000000E+00
  0.00000000E+00  0.00000000E+00  0.00000000E+00
  0.00000000E+00  0.00000000E+00  0.00000000E+00
  0.00000000E+00  0.00000000E+00  0.00000000E+00
  0.00000000E+00  0.00000000E+00  0.00000000E+00
  0.00000000E+00  0.00000000E+00  0.00000000E+00
  0.00000000E+00  0.00000000E+00  0.00000000E+00
  0.00000000E+00  0.00000000E+00  0.00000000E+00
  0.00000000E+00  0.00000000E+00  0.00000000E+00
  0.00000000E+00  0.00000000E+00  0.00000000E+00
  0.00000000E+00  0.00000000E+00  0.00000000E+00
  0.00000000E+00  0.00000000E+00  0.00000000E+00
  0.00000000E+00  0.00000000E+00  0.00000000E+00
  0.00000000E+00  0.00000000E+00  0.00000000E+00
  0.00000000E+00  0.00000000E+00  0.00000000E+00
  0.00000000E+00  0.00000000E+00  0.00000000E+00
  0.00000000E+00  0.00000000E+00  0.00000000E+00
  0.00000000E+00  0.00000000E+00  0.00000000E+00
  0.00000000E+00  0.00000000E+00  0.00000000E+00
  0.00000000E+00  0.00000000E+00  0.00000000E+00
  0.00000000E+00  0.00000000E+00  0.00000000E+00
  0.00000000E+00  0.00000000E+00  0.00000000E+00
  0.00000000E+00  0.00000000E+00  0.00000000E+00
  0.00000000E+00  0.00000000E+00  0.00000000E+00
  0.00000000E+00  0.00000000E+00  0.00000000E+00
  0.00000000E+00  0.00000000E+00  0.00000000E+00
  0.00000000E+00  0.00000000E+00  0.00000000E+00
  0.00000000E+00  0.00000000E+00  0.00000000E+00
  0.00000000E+00  0.00000000E+00  0.00000000E+00
  0.00000000E+00  0.00000000E+00  0.00000000E+00
  0.00000000E+00  0.00000000E+00  0.00000000E+00
  0.00000000E+00  0.00000000E+00  0.00000000E+00
  0.00000000E+00  0.00000000E+00  0.00000000E+00
  0.00000000E+00  0.00000000E+00  0.00000000E+00
  0.00000000E+00  0.00000000E+00  0.00000000E+00
  0.00000000E+00  0.00000000E+00  0.00000000E+00
  0.00000000E+00  0.00000000E+00  0.00000000E+00
  0.00000000E+00  0.00000000E+00  0.00000000E+00
  0.00000000E+00  0.00000000E+00  0.00000000E+00
  0.00000000E+00  0.00000000E+00  0.00000000E+00
  0.00000000E+00  0.00000000E+00  0.00000000E+00
  0.00000000E+00  0.00000000E+00  0.00000000E+00
  0.00000000E+00  0.00000000E+00  0.00000000E+00
  0.00000000E+00  0.00000000E+00  0.00000000E+00
  0.00000000E+00  0.00000000E+00  0.00000000E+00
  0.00000000E+00  0.00000000E+00  0.00000000E+00
  0.00000000E+00  0.00000000E+00  0.00000000E+00
  0.00000000E+00  0.00000000E+00  0.00000000E+00
  0.00000000E+00  0.00000000E+00  0.00000000E+00
  0.00000000E+00  0.00000000E+00  0.00000000E+00
  0.00000000E+00  0.00000000E+00  0.00000000E+00
