Primitive Cell                          
   1.00000000000000     
     8.6329149650374539    0.0063364362790202   -0.0113296866635937
    -4.3052749430014865    7.4784330278902127    0.0095384970282347
     0.1276473621082573    0.1021462400667234   23.7452524161047052
   Si   Hf   O    Li
    18    12    72    24
Selective dynamics
Direct
  0.6368340937291137  0.6808094061794918  0.0634304750001959   T   T   T
  0.3555733685828955  0.9769610168511278  0.0638079337912245   T   T   T
  0.0611412689867308  0.3887858722113222  0.0705326903712447   T   T   T
  0.9685950659176541  0.6456172545505225  0.2317800818981937   T   T   T
  0.6969733219012610  0.0756350843537490  0.2315378078647825   T   T   T
  0.4052485527861549  0.3523786993893836  0.2335090238652526   T   T   T
  0.7234097958914347  0.7324712362503902  0.4025366064295568   T   T   T
  0.3102693274878590  0.0130640033679370  0.4024923485308207   T   T   T
  0.0296806552018225  0.3197267736077549  0.4040765710897247   T   T   T
  0.0612825556012027  0.6938126517742091  0.5719375902830421   T   T   T
  0.6454386002188315  0.9721764350414546  0.5742070954411176   T   T   T
  0.3356839133393876  0.3868554870829257  0.5745409519969229   T   T   T
  0.6709542442790521  0.6422210279332603  0.7336780098407161   T   T   T
  0.3793590493262968  0.0616925267742303  0.7350637882416109   T   T   T
  0.9657125549704944  0.3612605757329632  0.7398859764424230   T   T   T
  0.2736533207946152  0.2998880410429621  0.8966460001407839   T   T   T
  0.0112343095604572  0.7357567838236747  0.8983329250424319   T   T   T
  0.7061424993007464  0.0019596867323841  0.8985891651151618   T   T   T
  0.0036489328105134  0.0146547580481808  0.0044393104280047   T   T   T
  0.6916200638834198  0.3608970734242192  0.1269239436310130   T   T   T
  0.3455908322947749  0.6873101024140169  0.1728614529335175   T   T   T
  0.0213205802425733  0.0219137317321625  0.3003723392382653   T   T   T
  0.6882854276321027  0.3543096192200110  0.3359178869009938   T   T   T
  0.3531808344395984  0.6879620764357597  0.4788384711296558   T   T   T
  0.0163214992931771  0.0179138839775774  0.4980265826946493   T   T   T
  0.6806831271792007  0.3557133115166948  0.6347806507503932   T   T   T
  0.3387928615169287  0.6764437132648951  0.6784418035535467   T   T   T
  0.9998724801206151  0.0180962688474295  0.7879194810666164   T   T   T
  0.6521619748669139  0.3383474983080532  0.8420504108488842   T   T   T
  0.3432426886102462  0.6682522745821586  0.9628218870080829   T   T   T
  0.5688297970450762  0.6942247548388991  0.0001801846259468   T   T   T
  0.3428323617188624  0.8714106998608528  0.0046728026790177   T   T   T
  0.2210520429341969  0.4693384596707304  0.0233076933385377   T   T   T
  0.2260979273667871  0.0667646295363866  0.0548004896644656   T   T   T
  0.9031191527175224  0.4384688018642038  0.0588957198256352   T   T   T
  0.6024207243821422  0.4761803549593537  0.0655531557742322   T   T   T
  0.9506167438737663  0.1666868949595823  0.0622520205453156   T   T   T
  0.8593235066066711  0.8068049666577224  0.0633376733195448   T   T   T
  0.5669367032926687  0.1309108745183849  0.0695304466350635   T   T   T
  0.5509406213838233  0.7451652484281936  0.1124682463957356   T   T   T
  0.2783863545753889  0.8400754528550110  0.1175553485601881   T   T   T
  0.1511796143570905  0.4481997569678668  0.1324449105110403   T   T   T
  0.8851262744411414  0.5769897910677813  0.1678366775131579   T   T   T
  0.7224636746368418  0.1745810162198609  0.1697464967752396   T   T   T
  0.4969925421747803  0.3465654483286116  0.1737162824838876   T   T   T
  0.5636130380734983  0.8583826427816632  0.2221827856671155   T   T   T
  0.3104226939246146  0.4789271429318234  0.2272478325907485   T   T   T
  0.1882603027978504  0.7329165588778253  0.2273732551303738   T   T   T
  0.2391873137884559  0.1502639183350780  0.2447750357688747   T   T   T
  0.9022947928469023  0.1257231347338461  0.2463500752021233   T   T   T
  0.9211430338380353  0.8003237249473045  0.2478584788166529   T   T   T
  0.9020511850502047  0.4862384929753532  0.2789196303088914   T   T   T
  0.6034366350009890  0.1386258015837427  0.2794793753802622   T   T   T
  0.5528898425076960  0.4404461273172942  0.2834615026000336   T   T   T
  0.1997910919227976  0.9758243520001955  0.3434549233774717   T   T   T
  0.7934140126412430  0.8488917752504648  0.3441250471425974   T   T   T
  0.0721076419573592  0.2463764118120224  0.3458215473788471   T   T   T
  0.9059265017221705  0.4108965091079710  0.3897773279787202   T   T   T
  0.5267539769121683  0.1417869390715083  0.3910126862465120   T   T   T
  0.6383408327041877  0.5170666085903264  0.3913536647257914   T   T   T
  0.2626546631242874  0.8193786942857102  0.4291506699634198   T   T   T
  0.2237121641464555  0.4637422875742132  0.4305151617950926   T   T   T
  0.5777844538465544  0.7780924199937047  0.4308864893776700   T   T   T
  0.8885029064983385  0.7897679433420919  0.4478345352518645   T   T   T
  0.2540240130790821  0.1198184191778680  0.4491908453079958   T   T   T
  0.9179459928426112  0.1596568536802252  0.4511162448848225   T   T   T
  0.1113658465787708  0.5851579003579488  0.5248385323277489   T   T   T
  0.4904071084868988  0.9275984096362535  0.5262046232017425   T   T   T
  0.4478984877644550  0.5537550606727990  0.5304997647535998   T   T   T
  0.1135575319291675  0.8910829064050745  0.5472078346466986   T   T   T
  0.7916503446661594  0.9222502771986782  0.5484435782252035   T   T   T
  0.1421420927221746  0.2406258907934387  0.5483812471787957   T   T   T
  0.8446434688457600  0.5737167400752838  0.5832358584324737   T   T   T
  0.4554806144228962  0.2889198891331546  0.5855501311637283   T   T   T
  0.7458396774106575  0.1884250153477325  0.5878756276650705   T   T   T
  0.1710461121258220  0.7226014598560511  0.6306846822155237   T   T   T
  0.5566938663646965  0.8552596230454057  0.6320423590844371   T   T   T
  0.2852879370242789  0.4521858106301053  0.6336929222270911   T   T   T
  0.6146542933298562  0.5161711176735295  0.6793594200652748   T   T   T
  0.5413447803398839  0.1426043867442743  0.6896815920086965   T   T   T
  0.8949930009321037  0.4401572345369189  0.6903936137454352   T   T   T
  0.9228587434596349  0.1538629728656957  0.7277612874536032   T   T   T
  0.2271495213056056  0.1241699113979351  0.7291909247505046   T   T   T
  0.8815146233697035  0.7979798644348008  0.7352512975342052   T   T   T
  0.2792395416055413  0.8411322820329303  0.7356508783191487   T   T   T
  0.5505378126178044  0.7437706413939509  0.7384158684503745   T   T   T
  0.1860956518664310  0.4804548632459813  0.7415485440884737   T   T   T
  0.6109540790290779  0.5187828714459854  0.7923001470740232   T   T   T
  0.4604703119955502  0.1212282509477305  0.7994983191766352   T   T   T
  0.8741059132199211  0.3643681011146498  0.8001825602812076   T   T   T
  0.1890422048119476  0.2294562607389636  0.8341638022431894   T   T   T
  0.8001780768575557  0.9971166430473772  0.8387262536104885   T   T   T
  0.0356311284231836  0.8530991963370056  0.8417467332317585   T   T   T
  0.8631141120028687  0.5240685829969323  0.8920556505699082   T   T   T
  0.4927704119381460  0.3903152886677503  0.8971956912763375   T   T   T
  0.5459331095398667  0.7886425566248931  0.9010142186500971   T   T   T
  0.6190655833195891  0.1339043610941246  0.8993186850680175   T   T   T
  0.2125152758440620  0.7617573507396713  0.9042732571992360   T   T   T
  0.2186653904409752  0.4515487588160028  0.9104269197129895   T   T   T
  0.2075930410162599  0.1445473558854857  0.9458508240675769   T   T   T
  0.8347388486755491  0.0612767041352456  0.9545606533964346   T   T   T
  0.9366709782689853  0.7855912646331831  0.9558455487295774   T   T   T
  0.7578199876014722  0.1939102799963877  0.0105146039723039   T   T   T
  0.8711959693984994  0.6075617908371242  0.0190946737995787   T   T   T
  0.3614560472830917  0.3286781456096790  0.0390817095675970   T   T   T
  0.7070587566204978  0.0167767334656190  0.1093218936224858   T   T   T
  0.0279259448894109  0.8025706342183270  0.1239150914994624   T   T   T
  0.0866362919077943  0.2609917392337806  0.1892442602964763   T   T   T
  0.3340691788923280  0.9746291514771954  0.2716685397631338   T   T   T
  0.6603732587790603  0.7124011489720203  0.2726893681288374   T   T   T
  0.0933254485128572  0.4208484254938440  0.2855816315430530   T   T   T
  0.3996283005861727  0.3778272214529537  0.4298676089078057   T   T   T
  0.0001168367100206  0.6410965449628563  0.4336502012261505   T   T   T
  0.6581923357263975  0.0405958971401148  0.4344986294716975   T   T   T
  0.9667763895845312  0.3239013036721943  0.5387842128247229   T   T   T
  0.3696377859138522  0.0666379822589462  0.5398063343898869   T   T   T
  0.7043744315829414  0.6664575181031935  0.5454310199579027   T   T   T
  0.1340735573159861  0.2215756480660076  0.6732401347863330   T   T   T
  0.0295994699219619  0.7195584745444989  0.6976988140771283   T   T   T
  0.6803881714115789  0.0012692818549311  0.6993671445533565   T   T   T
  0.3334456996603024  0.3716346869723850  0.7697675075366064   T   T   T
  0.5713958419144376  0.7362955291556261  0.8224865208724523   T   T   T
  0.2782209553106441  0.8660043731387148  0.8234502413491356   T   T   T
  0.0389785996205063  0.4470677750288914  0.8631310411992246   T   T   T
  0.6594577785576305  0.6331200002556869  0.9318269975115427   T   T   T
  0.3679185570868668  0.0280063819125047  0.9370539478991375   T   T   T
 
  0.00000000E+00  0.00000000E+00  0.00000000E+00
  0.00000000E+00  0.00000000E+00  0.00000000E+00
  0.00000000E+00  0.00000000E+00  0.00000000E+00
  0.00000000E+00  0.00000000E+00  0.00000000E+00
  0.00000000E+00  0.00000000E+00  0.00000000E+00
  0.00000000E+00  0.00000000E+00  0.00000000E+00
  0.00000000E+00  0.00000000E+00  0.00000000E+00
  0.00000000E+00  0.00000000E+00  0.00000000E+00
  0.00000000E+00  0.00000000E+00  0.00000000E+00
  0.00000000E+00  0.00000000E+00  0.00000000E+00
  0.00000000E+00  0.00000000E+00  0.00000000E+00
  0.00000000E+00  0.00000000E+00  0.00000000E+00
  0.00000000E+00  0.00000000E+00  0.00000000E+00
  0.00000000E+00  0.00000000E+00  0.00000000E+00
  0.00000000E+00  0.00000000E+00  0.00000000E+00
  0.00000000E+00  0.00000000E+00  0.00000000E+00
  0.00000000E+00  0.00000000E+00  0.00000000E+00
  0.00000000E+00  0.00000000E+00  0.00000000E+00
  0.00000000E+00  0.00000000E+00  0.00000000E+00
  0.00000000E+00  0.00000000E+00  0.00000000E+00
  0.00000000E+00  0.00000000E+00  0.00000000E+00
  0.00000000E+00  0.00000000E+00  0.00000000E+00
  0.00000000E+00  0.00000000E+00  0.00000000E+00
  0.00000000E+00  0.00000000E+00  0.00000000E+00
  0.00000000E+00  0.00000000E+00  0.00000000E+00
  0.00000000E+00  0.00000000E+00  0.00000000E+00
  0.00000000E+00  0.00000000E+00  0.00000000E+00
  0.00000000E+00  0.00000000E+00  0.00000000E+00
  0.00000000E+00  0.00000000E+00  0.00000000E+00
  0.00000000E+00  0.00000000E+00  0.00000000E+00
  0.00000000E+00  0.00000000E+00  0.00000000E+00
  0.00000000E+00  0.00000000E+00  0.00000000E+00
  0.00000000E+00  0.00000000E+00  0.00000000E+00
  0.00000000E+00  0.00000000E+00  0.00000000E+00
  0.00000000E+00  0.00000000E+00  0.00000000E+00
  0.00000000E+00  0.00000000E+00  0.00000000E+00
  0.00000000E+00  0.00000000E+00  0.00000000E+00
  0.00000000E+00  0.00000000E+00  0.00000000E+00
  0.00000000E+00  0.00000000E+00  0.00000000E+00
  0.00000000E+00  0.00000000E+00  0.00000000E+00
  0.00000000E+00  0.00000000E+00  0.00000000E+00
  0.00000000E+00  0.00000000E+00  0.00000000E+00
  0.00000000E+00  0.00000000E+00  0.00000000E+00
  0.00000000E+00  0.00000000E+00  0.00000000E+00
  0.00000000E+00  0.00000000E+00  0.00000000E+00
  0.00000000E+00  0.00000000E+00  0.00000000E+00
  0.00000000E+00  0.00000000E+00  0.00000000E+00
  0.00000000E+00  0.00000000E+00  0.00000000E+00
  0.00000000E+00  0.00000000E+00  0.00000000E+00
  0.00000000E+00  0.00000000E+00  0.00000000E+00
  0.00000000E+00  0.00000000E+00  0.00000000E+00
  0.00000000E+00  0.00000000E+00  0.00000000E+00
  0.00000000E+00  0.00000000E+00  0.00000000E+00
  0.00000000E+00  0.00000000E+00  0.00000000E+00
  0.00000000E+00  0.00000000E+00  0.00000000E+00
  0.00000000E+00  0.00000000E+00  0.00000000E+00
  0.00000000E+00  0.00000000E+00  0.00000000E+00
  0.00000000E+00  0.00000000E+00  0.00000000E+00
  0.00000000E+00  0.00000000E+00  0.00000000E+00
  0.00000000E+00  0.00000000E+00  0.00000000E+00
  0.00000000E+00  0.00000000E+00  0.00000000E+00
  0.00000000E+00  0.00000000E+00  0.00000000E+00
  0.00000000E+00  0.00000000E+00  0.00000000E+00
  0.00000000E+00  0.00000000E+00  0.00000000E+00
  0.00000000E+00  0.00000000E+00  0.00000000E+00
  0.00000000E+00  0.00000000E+00  0.00000000E+00
  0.00000000E+00  0.00000000E+00  0.00000000E+00
  0.00000000E+00  0.00000000E+00  0.00000000E+00
  0.00000000E+00  0.00000000E+00  0.00000000E+00
  0.00000000E+00  0.00000000E+00  0.00000000E+00
  0.00000000E+00  0.00000000E+00  0.00000000E+00
  0.00000000E+00  0.00000000E+00  0.00000000E+00
  0.00000000E+00  0.00000000E+00  0.00000000E+00
  0.00000000E+00  0.00000000E+00  0.00000000E+00
  0.00000000E+00  0.00000000E+00  0.00000000E+00
  0.00000000E+00  0.00000000E+00  0.00000000E+00
  0.00000000E+00  0.00000000E+00  0.00000000E+00
  0.00000000E+00  0.00000000E+00  0.00000000E+00
  0.00000000E+00  0.00000000E+00  0.00000000E+00
  0.00000000E+00  0.00000000E+00  0.00000000E+00
  0.00000000E+00  0.00000000E+00  0.00000000E+00
  0.00000000E+00  0.00000000E+00  0.00000000E+00
  0.00000000E+00  0.00000000E+00  0.00000000E+00
  0.00000000E+00  0.00000000E+00  0.00000000E+00
  0.00000000E+00  0.00000000E+00  0.00000000E+00
  0.00000000E+00  0.00000000E+00  0.00000000E+00
  0.00000000E+00  0.00000000E+00  0.00000000E+00
  0.00000000E+00  0.00000000E+00  0.00000000E+00
  0.00000000E+00  0.00000000E+00  0.00000000E+00
  0.00000000E+00  0.00000000E+00  0.00000000E+00
  0.00000000E+00  0.00000000E+00  0.00000000E+00
  0.00000000E+00  0.00000000E+00  0.00000000E+00
  0.00000000E+00  0.00000000E+00  0.00000000E+00
  0.00000000E+00  0.00000000E+00  0.00000000E+00
  0.00000000E+00  0.00000000E+00  0.00000000E+00
  0.00000000E+00  0.00000000E+00  0.00000000E+00
  0.00000000E+00  0.00000000E+00  0.00000000E+00
  0.00000000E+00  0.00000000E+00  0.00000000E+00
  0.00000000E+00  0.00000000E+00  0.00000000E+00
  0.00000000E+00  0.00000000E+00  0.00000000E+00
  0.00000000E+00  0.00000000E+00  0.00000000E+00
  0.00000000E+00  0.00000000E+00  0.00000000E+00
  0.00000000E+00  0.00000000E+00  0.00000000E+00
  0.00000000E+00  0.00000000E+00  0.00000000E+00
  0.00000000E+00  0.00000000E+00  0.00000000E+00
  0.00000000E+00  0.00000000E+00  0.00000000E+00
  0.00000000E+00  0.00000000E+00  0.00000000E+00
  0.00000000E+00  0.00000000E+00  0.00000000E+00
  0.00000000E+00  0.00000000E+00  0.00000000E+00
  0.00000000E+00  0.00000000E+00  0.00000000E+00
  0.00000000E+00  0.00000000E+00  0.00000000E+00
  0.00000000E+00  0.00000000E+00  0.00000000E+00
  0.00000000E+00  0.00000000E+00  0.00000000E+00
  0.00000000E+00  0.00000000E+00  0.00000000E+00
  0.00000000E+00  0.00000000E+00  0.00000000E+00
  0.00000000E+00  0.00000000E+00  0.00000000E+00
  0.00000000E+00  0.00000000E+00  0.00000000E+00
  0.00000000E+00  0.00000000E+00  0.00000000E+00
  0.00000000E+00  0.00000000E+00  0.00000000E+00
  0.00000000E+00  0.00000000E+00  0.00000000E+00
  0.00000000E+00  0.00000000E+00  0.00000000E+00
  0.00000000E+00  0.00000000E+00  0.00000000E+00
  0.00000000E+00  0.00000000E+00  0.00000000E+00
  0.00000000E+00  0.00000000E+00  0.00000000E+00
  0.00000000E+00  0.00000000E+00  0.00000000E+00
  0.00000000E+00  0.00000000E+00  0.00000000E+00
