Primitive Cell                          
   1.00000000000000     
    10.0510046626391958    0.0003790045960505   -0.0683030006078483
     0.0003399588829317    8.2566006745076344   -0.0000536370686870
     7.0273064324770207    0.0002228419295290    6.9981794163480169
   Si   Ta   O    Li
     8     4    28     4
Selective dynamics
Direct
  0.0990519307032116  0.3495330803941670  0.1968972234277899   T   T   T
  0.3557804819609629  0.9329148282065844  0.3184150009961186   T   T   T
  0.4938198454563434  0.4329606754280775  0.3281067433256695   T   T   T
  0.7505365097548946  0.8493399936610899  0.4498965778197288   T   T   T
  0.0987800534784071  0.3599349466418431  0.6970595660488357   T   T   T
  0.3554316175116554  0.7761815400910805  0.8186695880236243   T   T   T
  0.4941889876900802  0.2762158430114710  0.8278135445607901   T   T   T
  0.7507805907572873  0.8599995837284027  0.9497878569703389   T   T   T
  0.4251651323271517  0.6049428054956749  0.0727778478591574   T   T   T
  0.9244800371286246  0.6043686643412158  0.0737019296560177   T   T   T
  0.9250583555084830  0.1044578261844507  0.5731899005800045   T   T   T
  0.4246049799623393  0.1045956535325274  0.5733330182801666   T   T   T
  0.2777239855911589  0.2354672438336891  0.0273951583872858   T   T   T
  0.5722756033478404  0.9742613191799023  0.1191179842083017   T   T   T
  0.5025818450540314  0.4401385372383544  0.1567221763767392   T   T   T
  0.9724287565560985  0.4093828880571024  0.1575133943119340   T   T   T
  0.1740599906810232  0.5077760373365052  0.2266509717678744   T   T   T
  0.9001009256745505  0.7417684593127447  0.2560302421690039   T   T   T
  0.6540537378410463  0.5563201350758789  0.2712286509292099   T   T   T
  0.3087303894813616  0.7530334942598742  0.2880653010908247   T   T   T
  0.5407589218496085  0.2528443016065509  0.3582305382881970   T   T   T
  0.1956394711267109  0.0565019908156401  0.3752635671402231   T   T   T
  0.9496526552820512  0.2418344615622132  0.3907691319942757   T   T   T
  0.6754762144034743  0.0074703661076043  0.4199843997500565   T   T   T
  0.8767519024525186  0.9093742195601351  0.4896597661422391   T   T   T
  0.3466217190574454  0.9399045090748999  0.4900720666024156   T   T   T
  0.2773793013764418  0.4742445208199229  0.5276874618379210   T   T   T
  0.5720031883036967  0.7350573159784446  0.6192593033917362   T   T   T
  0.5029238756025052  0.2688957278262833  0.6565357869571997   T   T   T
  0.9726222324655893  0.2995872359103373  0.6573079804295432   T   T   T
  0.1742656979202195  0.2020487708534020  0.7266949482946004   T   T   T
  0.9007266949188448  0.9670972403189566  0.7555376600639221   T   T   T
  0.6544640661101013  0.1529755904432264  0.7711490703639114   T   T   T
  0.3083791742286053  0.9560635382491611  0.7881702501611514   T   T   T
  0.5411038391735801  0.4563935563955965  0.8580228597011299   T   T   T
  0.1952013743404990  0.6526622586218807  0.8756207065152282   T   T   T
  0.9489601204674685  0.4671833859742023  0.8911610432672319   T   T   T
  0.6753496857979897  0.7022559997350584  0.9199217384350575   T   T   T
  0.8767560183424621  0.7995740744566007  0.9896806883940243   T   T   T
  0.3463954591084004  0.7693354289350864  0.9901743787799262   T   T   T
  0.0941057656715927  0.7717552835483019  0.2724354780421336   T   T   T
  0.7554436030615079  0.2716771862474019  0.3746406231518407   T   T   T
  0.0954917291022994  0.9344836551326168  0.7712293955591463   T   T   T
  0.7540306902918843  0.4342871721658099  0.8757373457294335   T   T   T
 
  0.00000000E+00  0.00000000E+00  0.00000000E+00
  0.00000000E+00  0.00000000E+00  0.00000000E+00
  0.00000000E+00  0.00000000E+00  0.00000000E+00
  0.00000000E+00  0.00000000E+00  0.00000000E+00
  0.00000000E+00  0.00000000E+00  0.00000000E+00
  0.00000000E+00  0.00000000E+00  0.00000000E+00
  0.00000000E+00  0.00000000E+00  0.00000000E+00
  0.00000000E+00  0.00000000E+00  0.00000000E+00
  0.00000000E+00  0.00000000E+00  0.00000000E+00
  0.00000000E+00  0.00000000E+00  0.00000000E+00
  0.00000000E+00  0.00000000E+00  0.00000000E+00
  0.00000000E+00  0.00000000E+00  0.00000000E+00
  0.00000000E+00  0.00000000E+00  0.00000000E+00
  0.00000000E+00  0.00000000E+00  0.00000000E+00
  0.00000000E+00  0.00000000E+00  0.00000000E+00
  0.00000000E+00  0.00000000E+00  0.00000000E+00
  0.00000000E+00  0.00000000E+00  0.00000000E+00
  0.00000000E+00  0.00000000E+00  0.00000000E+00
  0.00000000E+00  0.00000000E+00  0.00000000E+00
  0.00000000E+00  0.00000000E+00  0.00000000E+00
  0.00000000E+00  0.00000000E+00  0.00000000E+00
  0.00000000E+00  0.00000000E+00  0.00000000E+00
  0.00000000E+00  0.00000000E+00  0.00000000E+00
  0.00000000E+00  0.00000000E+00  0.00000000E+00
  0.00000000E+00  0.00000000E+00  0.00000000E+00
  0.00000000E+00  0.00000000E+00  0.00000000E+00
  0.00000000E+00  0.00000000E+00  0.00000000E+00
  0.00000000E+00  0.00000000E+00  0.00000000E+00
  0.00000000E+00  0.00000000E+00  0.00000000E+00
  0.00000000E+00  0.00000000E+00  0.00000000E+00
  0.00000000E+00  0.00000000E+00  0.00000000E+00
  0.00000000E+00  0.00000000E+00  0.00000000E+00
  0.00000000E+00  0.00000000E+00  0.00000000E+00
  0.00000000E+00  0.00000000E+00  0.00000000E+00
  0.00000000E+00  0.00000000E+00  0.00000000E+00
  0.00000000E+00  0.00000000E+00  0.00000000E+00
  0.00000000E+00  0.00000000E+00  0.00000000E+00
  0.00000000E+00  0.00000000E+00  0.00000000E+00
  0.00000000E+00  0.00000000E+00  0.00000000E+00
  0.00000000E+00  0.00000000E+00  0.00000000E+00
  0.00000000E+00  0.00000000E+00  0.00000000E+00
  0.00000000E+00  0.00000000E+00  0.00000000E+00
  0.00000000E+00  0.00000000E+00  0.00000000E+00
  0.00000000E+00  0.00000000E+00  0.00000000E+00
