Primitive Cell                          
   1.00000000000000     
    10.1455647328528222    0.0351943629434828   -0.0033809232839380
    -0.4578857496741759   10.2943679887975801   -0.0078094977617192
     0.0040425277602958    0.0077991494194885    9.8389219384945861
   Ta   P    O    Li
    12     8    52     4
Selective dynamics
Direct
  0.4046212618443263  0.5356994213563055  0.0001312943966951   T   T   T
  0.7853967957205654  0.4971372542278871  0.0049162399096190   T   T   T
  0.2970732143849943  0.2714964300101883  0.2371864094858580   T   T   T
  0.8082553183838854  0.7712359235890247  0.2536407181272153   T   T   T
  0.5814579509106679  0.2306120783810073  0.4921493260162393   T   T   T
  0.5554352451344684  0.8591617584727729  0.4997566958080313   T   T   T
  0.0554791791001605  0.3592745577155014  0.4984492806403438   T   T   T
  0.0813451798857727  0.7306604477676757  0.5056025060298523   T   T   T
  0.3083962915807916  0.2713136378859318  0.7444301060740770   T   T   T
  0.7971242686360469  0.7714241419880921  0.7608723616938562   T   T   T
  0.2855409339766126  0.9972341418858193  0.9930606847024706   T   T   T
  0.9045848202823308  0.0356108134074162  0.9979203862997039   T   T   T
  0.6136129588613386  0.8863332972163391  0.0075481371339947   T   T   T
  0.8188325839569188  0.2656280491636664  0.2474827357442564   T   T   T
  0.3172046855525466  0.7675615388620542  0.2497373891019805   T   T   T
  0.6589850068113137  0.5719854056384222  0.4899690928620970   T   T   T
  0.1592063186511439  0.0720542390112797  0.5078701172512723   T   T   T
  0.8171401648704872  0.2675034164170071  0.7482790208878498   T   T   T
  0.3185254879756627  0.7654276329037657  0.7504116697907293   T   T   T
  0.1135772356786404  0.3863308769959417  0.9906246730220687   T   T   T
  0.0976655769573895  0.0321831667960524  0.0031836973487600   T   T   T
  0.4680484011352988  0.9216069059716716  0.0091687782883483   T   T   T
  0.1404917185433945  0.3007515693007718  0.1158235966698626   T   T   T
  0.8364188049271917  0.6270995918501683  0.1290881945382836   T   T   T
  0.6479469435443335  0.8056863205998113  0.1328982717846969   T   T   T
  0.3925493050867601  0.4012424420950040  0.1397120522767921   T   T   T
  0.8994928666623636  0.9079486871429623  0.1432966049109936   T   T   T
  0.3387038967702765  0.1138537783991254  0.1406128299143106   T   T   T
  0.8837805436114010  0.1675747475555767  0.1511162663530214   T   T   T
  0.2367222628472874  0.8588433190493561  0.1577900728575727   T   T   T
  0.7535653564553044  0.3661964388549777  0.1548385223026472   T   T   T
  0.3808798156741204  0.6665541451782815  0.1564049404827159   T   T   T
  0.4220886524670320  0.8525547453064846  0.3297905595253283   T   T   T
  0.7115704103564937  0.1984662535625930  0.3380406352871859   T   T   T
  0.9201447034143015  0.3320811016811192  0.3443884802408164   T   T   T
  0.9758212625598333  0.7832733875119828  0.3522147857906219   T   T   T
  0.2123694504062144  0.0856362803697479  0.3600227027083918   T   T   T
  0.2254672671118527  0.7049168429516754  0.3593845278637673   T   T   T
  0.1890208540142524  0.3583646153017810  0.3657006987706879   T   T   T
  0.4414230093717038  0.2462490013289838  0.3632362813438874   T   T   T
  0.6994142247304111  0.8668239291967552  0.3743113885790379   T   T   T
  0.7602091823610451  0.6162140583602849  0.3812058856845795   T   T   T
  0.6242512201849237  0.4258366548661385  0.4684672901475935   T   T   T
  0.5380118625692063  0.6590486812526066  0.4775812671801276   T   T   T
  0.5332238715950552  0.0454399122310249  0.4935809766763199   T   T   T
  0.0330789311180126  0.5455350698501391  0.5043380222996632   T   T   T
  0.0381975474048275  0.1591992930829988  0.5201201651244887   T   T   T
  0.1243032590139990  0.9259548603148531  0.5292347701391691   T   T   T
  0.2601562593906337  0.1162169209226320  0.6169630490111189   T   T   T
  0.1992574576565076  0.3669803537742098  0.6240123142554737   T   T   T
  0.9409947807126571  0.7465375430869585  0.6342373338218650   T   T   T
  0.6887179709931743  0.8583778693895141  0.6325783219857044   T   T   T
  0.7118876796641018  0.5853633371549947  0.6379923278109061   T   T   T
  0.7254839679655944  0.2047712146613918  0.6386792646874113   T   T   T
  0.4756668911729420  0.2833691361147288  0.6453442379277163   T   T   T
  0.4197445574771166  0.8314484984748276  0.6530798397893349   T   T   T
  0.2109410363085829  0.6983494110581603  0.6602642075904370   T   T   T
  0.9220329814329631  0.3525281063994257  0.6681825286787912   T   T   T
  0.8807757976820341  0.1665630715667135  0.8416673436929614   T   T   T
  0.2537484951613180  0.8663819007456226  0.8429414159429029   T   T   T
  0.7366978300293781  0.3590130800226277  0.8400245926797183   T   T   T
  0.3835096683073900  0.6675849821570594  0.8469358904105349   T   T   T
  0.8388088136148895  0.6138715142132654  0.8572721426845504   T   T   T
  0.3996186909575457  0.4080269409730377  0.8546266805821787   T   T   T
  0.8926241010506217  0.9011522245124297  0.8582375095401744   T   T   T
  0.1480179353606133  0.3056399361416879  0.8652483428040512   T   T   T
  0.3366646063748675  0.1272717789446602  0.8689772982333039   T   T   T
  0.6405695952989916  0.8006991342342147  0.8823897996395758   T   T   T
  0.9679692261557378  0.4215398454491321  0.9888983369489779   T   T   T
  0.5976689191547777  0.5323952474467930  0.9947540755300537   T   T   T
  0.2017969850768608  0.5125079014105580  0.9968047008924827   T   T   T
  0.7018199686187927  0.0125235634116265  0.0013936474281024   T   T   T
  0.0771776008850793  0.9317100515838561  0.2405707602946308   T   T   T
  0.4008434884022023  0.0400172906688780  0.3236364734011588   T   T   T
  0.9003806136981467  0.5399075926989312  0.6739875892911300   T   T   T
  0.5773358641455886  0.4322089646379297  0.7568244606308241   T   T   T
 
  0.00000000E+00  0.00000000E+00  0.00000000E+00
  0.00000000E+00  0.00000000E+00  0.00000000E+00
  0.00000000E+00  0.00000000E+00  0.00000000E+00
  0.00000000E+00  0.00000000E+00  0.00000000E+00
  0.00000000E+00  0.00000000E+00  0.00000000E+00
  0.00000000E+00  0.00000000E+00  0.00000000E+00
  0.00000000E+00  0.00000000E+00  0.00000000E+00
  0.00000000E+00  0.00000000E+00  0.00000000E+00
  0.00000000E+00  0.00000000E+00  0.00000000E+00
  0.00000000E+00  0.00000000E+00  0.00000000E+00
  0.00000000E+00  0.00000000E+00  0.00000000E+00
  0.00000000E+00  0.00000000E+00  0.00000000E+00
  0.00000000E+00  0.00000000E+00  0.00000000E+00
  0.00000000E+00  0.00000000E+00  0.00000000E+00
  0.00000000E+00  0.00000000E+00  0.00000000E+00
  0.00000000E+00  0.00000000E+00  0.00000000E+00
  0.00000000E+00  0.00000000E+00  0.00000000E+00
  0.00000000E+00  0.00000000E+00  0.00000000E+00
  0.00000000E+00  0.00000000E+00  0.00000000E+00
  0.00000000E+00  0.00000000E+00  0.00000000E+00
  0.00000000E+00  0.00000000E+00  0.00000000E+00
  0.00000000E+00  0.00000000E+00  0.00000000E+00
  0.00000000E+00  0.00000000E+00  0.00000000E+00
  0.00000000E+00  0.00000000E+00  0.00000000E+00
  0.00000000E+00  0.00000000E+00  0.00000000E+00
  0.00000000E+00  0.00000000E+00  0.00000000E+00
  0.00000000E+00  0.00000000E+00  0.00000000E+00
  0.00000000E+00  0.00000000E+00  0.00000000E+00
  0.00000000E+00  0.00000000E+00  0.00000000E+00
  0.00000000E+00  0.00000000E+00  0.00000000E+00
  0.00000000E+00  0.00000000E+00  0.00000000E+00
  0.00000000E+00  0.00000000E+00  0.00000000E+00
  0.00000000E+00  0.00000000E+00  0.00000000E+00
  0.00000000E+00  0.00000000E+00  0.00000000E+00
  0.00000000E+00  0.00000000E+00  0.00000000E+00
  0.00000000E+00  0.00000000E+00  0.00000000E+00
  0.00000000E+00  0.00000000E+00  0.00000000E+00
  0.00000000E+00  0.00000000E+00  0.00000000E+00
  0.00000000E+00  0.00000000E+00  0.00000000E+00
  0.00000000E+00  0.00000000E+00  0.00000000E+00
  0.00000000E+00  0.00000000E+00  0.00000000E+00
  0.00000000E+00  0.00000000E+00  0.00000000E+00
  0.00000000E+00  0.00000000E+00  0.00000000E+00
  0.00000000E+00  0.00000000E+00  0.00000000E+00
  0.00000000E+00  0.00000000E+00  0.00000000E+00
  0.00000000E+00  0.00000000E+00  0.00000000E+00
  0.00000000E+00  0.00000000E+00  0.00000000E+00
  0.00000000E+00  0.00000000E+00  0.00000000E+00
  0.00000000E+00  0.00000000E+00  0.00000000E+00
  0.00000000E+00  0.00000000E+00  0.00000000E+00
  0.00000000E+00  0.00000000E+00  0.00000000E+00
  0.00000000E+00  0.00000000E+00  0.00000000E+00
  0.00000000E+00  0.00000000E+00  0.00000000E+00
  0.00000000E+00  0.00000000E+00  0.00000000E+00
  0.00000000E+00  0.00000000E+00  0.00000000E+00
  0.00000000E+00  0.00000000E+00  0.00000000E+00
  0.00000000E+00  0.00000000E+00  0.00000000E+00
  0.00000000E+00  0.00000000E+00  0.00000000E+00
  0.00000000E+00  0.00000000E+00  0.00000000E+00
  0.00000000E+00  0.00000000E+00  0.00000000E+00
  0.00000000E+00  0.00000000E+00  0.00000000E+00
  0.00000000E+00  0.00000000E+00  0.00000000E+00
  0.00000000E+00  0.00000000E+00  0.00000000E+00
  0.00000000E+00  0.00000000E+00  0.00000000E+00
  0.00000000E+00  0.00000000E+00  0.00000000E+00
  0.00000000E+00  0.00000000E+00  0.00000000E+00
  0.00000000E+00  0.00000000E+00  0.00000000E+00
  0.00000000E+00  0.00000000E+00  0.00000000E+00
  0.00000000E+00  0.00000000E+00  0.00000000E+00
  0.00000000E+00  0.00000000E+00  0.00000000E+00
  0.00000000E+00  0.00000000E+00  0.00000000E+00
  0.00000000E+00  0.00000000E+00  0.00000000E+00
  0.00000000E+00  0.00000000E+00  0.00000000E+00
  0.00000000E+00  0.00000000E+00  0.00000000E+00
  0.00000000E+00  0.00000000E+00  0.00000000E+00
  0.00000000E+00  0.00000000E+00  0.00000000E+00
