Primitive Cell                          
   1.00000000000000     
     8.9512882119021313    0.0516365027461759   -0.0134357751223224
    -4.6210588056583122    7.6057668785873718   -0.0271251821219561
     0.0918048192334327   -0.1728610041493097   22.4696046659603788
   Si   Nb   O    Li
    18    12    72    12
Selective dynamics
Direct
  0.3705050647110610  0.0535057799127330  0.0957727268100754   T   T   T
  0.9326329113572456  0.3385374671540049  0.1018283634607897   T   T   T
  0.6541661755336250  0.6210723898595845  0.1015534049177731   T   T   T
  0.9931626992149276  0.7187370699070215  0.2640691942431630   T   T   T
  0.7145621851250965  0.0014264909622170  0.2636380034560943   T   T   T
  0.2766230481852290  0.2863215178485703  0.2698798721062303   T   T   T
  0.0370165656175061  0.3866326368489794  0.4289692740298960   T   T   T
  0.5991567565503928  0.6720536623759372  0.4352040741467462   T   T   T
  0.3204497996850364  0.9540960314231697  0.4347952179808416   T   T   T
  0.6595643102284612  0.0523898030494081  0.5974358277633343   T   T   T
  0.3808196437630897  0.3345174074622861  0.5970290469779371   T   T   T
  0.9429582423316347  0.6197446556547916  0.6032642775986332   T   T   T
  0.7034200417530627  0.7199154763486817  0.7624187102077258   T   T   T
  0.2654689555056038  0.0050659020093420  0.7685773500039659   T   T   T
  0.9868708343178767  0.2874612121349571  0.7682848653102354   T   T   T
  0.3264159835052638  0.3856674984247874  0.9307799837809370   T   T   T
  0.0477773929909162  0.6679486594409667  0.9305192325793072   T   T   T
  0.6100319355877346  0.9532900896479930  0.9366628799099530   T   T   T
  0.3267361017066861  0.6732341647728006  0.0417632168618596   T   T   T
  0.9916287249080042  0.0008326063930681  0.1592099634662034   T   T   T
  0.6555032647120385  0.3391516239664227  0.2063861367224007   T   T   T
  0.3205346651771990  0.6667441117451389  0.3238025810358991   T   T   T
  0.9932345024698606  0.0062671331228188  0.3749862256536005   T   T   T
  0.6582948451409578  0.3342088260826444  0.4925145992762552   T   T   T
  0.3217949754911302  0.6723680425389986  0.5397508672225513   T   T   T
  0.9869535318474121  0.0002662045086552  0.6572431663054701   T   T   T
  0.6594069770501960  0.3395129449683907  0.7084107166280944   T   T   T
  0.3247987178637644  0.6675356449605800  0.8259967648058648   T   T   T
  0.9885446815257382  0.0055628983749472  0.8731225187796952   T   T   T
  0.6537912375147101  0.3334879439576284  0.9905772087598947   T   T   T
  0.5493887411967648  0.8784541047786831  0.0041617121787496   T   T   T
  0.4310992209087132  0.1284003530652456  0.0282779183512716   T   T   T
  0.8079307204972039  0.3009892093375868  0.0437169391520698   T   T   T
  0.6465813246234546  0.4981914528452549  0.0459987862666225   T   T   T
  0.1351110971043354  0.4918525545642680  0.0889757987877715   T   T   T
  0.8355409512533996  0.8126897687727492  0.0992072658441856   T   T   T
  0.3143862142522451  0.8471517393571446  0.1001415659463376   T   T   T
  0.5011438121934972  0.6708678499345098  0.0982448953865216   T   T   T
  0.1996196206689120  0.0679930568307228  0.1130963157033804   T   T   T
  0.9193205473869241  0.1514797907726049  0.1155437674325626   T   T   T
  0.5283168475736133  0.1674687232783896  0.1436711436451503   T   T   T
  0.8791742756622511  0.4243315281161415  0.1565251845030744   T   T   T
  0.6254465345414673  0.5246629330552750  0.1656826871723567   T   T   T
  0.0218737257662980  0.8154964004256726  0.1999811638633986   T   T   T
  0.7678495051417684  0.9156700445795636  0.2089289154400262   T   T   T
  0.1188315546538661  0.1724860239775339  0.2219686900824129   T   T   T
  0.7277960671476222  0.1884995138708732  0.2500339724189047   T   T   T
  0.4475884092141627  0.2720806235610951  0.2525218697315097   T   T   T
  0.1459854593083563  0.6686477834880407  0.2672273881836347   T   T   T
  0.3329311188560666  0.4927063688926339  0.2655592219918574   T   T   T
  0.8117934900759991  0.5272783601449120  0.2664470547784958   T   T   T
  0.5121461779874750  0.8480911578938191  0.2765620269320479   T   T   T
  0.0008854860869221  0.8415418207243874  0.3196575273810467   T   T   T
  0.8394558525413416  0.0389062670405309  0.3216836703939094   T   T   T
  0.2161572817169528  0.2114088441284352  0.3373992259004339   T   T   T
  0.0980548533920285  0.4615099777262870  0.3614914810448440   T   T   T
  0.4745793098129241  0.6345983915005178  0.3770637189834858   T   T   T
  0.3127356869039701  0.8313237843155861  0.3791992936368445   T   T   T
  0.8016101545513479  0.8253713609194904  0.4223085266434552   T   T   T
  0.5019569096231606  0.1456927102227610  0.4325838692778490   T   T   T
  0.9808534167688379  0.1803417829671616  0.4331916686544730   T   T   T
  0.1676379296296986  0.0042277505964634  0.4316130832846667   T   T   T
  0.8659004634049694  0.4008283843746767  0.4462557339817437   T   T   T
  0.5859694647174081  0.4848771302661632  0.4488166243635661   T   T   T
  0.1943817477268297  0.5005467969896529  0.4770428410342333   T   T   T
  0.5456810230307099  0.7576296623457424  0.4899313703620152   T   T   T
  0.2915863675322043  0.8575667621835308  0.4989138982489081   T   T   T
  0.6885842028218505  0.1490306034392574  0.5333374921719098   T   T   T
  0.4343309337621903  0.2489781168314948  0.5423400329066936   T   T   T
  0.7854407193497579  0.5059237896707884  0.5552209975044420   T   T   T
  0.3942680987652238  0.5218152869692929  0.5834189085302768   T   T   T
  0.1139364136945602  0.6053651783279861  0.5859460628965891   T   T   T
  0.8121225544978543  0.0019728849027629  0.6007556045879099   T   T   T
  0.9991194810329560  0.8261403438417148  0.5989518913504099   T   T   T
  0.4781144982870416  0.8607250786702494  0.5996363984609729   T   T   T
  0.1782297362367729  0.1814275659756461  0.6098747831896745   T   T   T
  0.6672038440492187  0.1751115522681772  0.6529965729438700   T   T   T
  0.5051419807667088  0.3715618381969108  0.6552312222858490   T   T   T
  0.8820941215952658  0.5447024098115349  0.6707444877814623   T   T   T
  0.7642583730120904  0.7949783673874933  0.6949459351461371   T   T   T
  0.1409884743847343  0.9677179369668778  0.7104167199911942   T   T   T
  0.9795236049919609  0.1648979598201024  0.7126628323605146   T   T   T
  0.4679591632993052  0.1582237855035444  0.7556688264600808   T   T   T
  0.1682667922675378  0.4790802676768280  0.7661003725077649   T   T   T
  0.6469641547770308  0.5134924303334287  0.7667176917579184   T   T   T
  0.8340172995296484  0.3374004021017143  0.7649773389153864   T   T   T
  0.5326029357113029  0.7345039431634319  0.7797641516084823   T   T   T
  0.2520586130049196  0.8179475018233049  0.7823042773820390   T   T   T
  0.8611035984949638  0.8336210130858461  0.8104224843654535   T   T   T
  0.2122233355324425  0.0910040946435515  0.8232358732173211   T   T   T
  0.9581596906876939  0.1906695990295617  0.8323308881824261   T   T   T
  0.3552073084354390  0.4823047976716452  0.8666752528893298   T   T   T
  0.1011329527774194  0.5820349665815669  0.8758963539746247   T   T   T
  0.4521640042745290  0.8393755062142532  0.8887076459883900   T   T   T
  0.0611256021668183  0.8550626260577801  0.9167547480398426   T   T   T
  0.7809412724833464  0.9387835958549715  0.9193527905960224   T   T   T
  0.4791686064788436  0.3354626138865555  0.9340267561264355   T   T   T
  0.6662914622365150  0.1596565511640975  0.9322711263739549   T   T   T
  0.1449930876569141  0.1941180766990485  0.9330227693832001   T   T   T
  0.8452755791310480  0.5148063902411408  0.9433494009872803   T   T   T
  0.3343663822533927  0.5087999394090374  0.9863010385387838   T   T   T
  0.1723697542634710  0.7055280630968355  0.9886828070487468   T   T   T
  0.7212704315985476  0.9498130413925310  0.0693885828034766   T   T   T
  0.1164770089446847  0.6772085729573476  0.1548071441669663   T   T   T
  0.5303283467429978  0.6626658099957368  0.2107262568169475   T   T   T
  0.9259772281050473  0.3900850147758774  0.2962374457801289   T   T   T
  0.3877856636077865  0.2828798874864589  0.4027298952278144   T   T   T
  0.7831494016348159  0.0104790627157598  0.4881236388850425   T   T   T
  0.1967151719584450  0.9958998726653263  0.5439487003885333   T   T   T
  0.5927156840821937  0.7237674693414959  0.6294539348025054   T   T   T
  0.0540574860629590  0.6161409267029612  0.7360730833009654   T   T   T
  0.4494939110055398  0.3437169463511438  0.8214756501935270   T   T   T
  0.8637663652840146  0.3294931929453355  0.8774998703638843   T   T   T
  0.2593689570990421  0.0570925419599249  0.9628681540265873   T   T   T
 
  0.00000000E+00  0.00000000E+00  0.00000000E+00
  0.00000000E+00  0.00000000E+00  0.00000000E+00
  0.00000000E+00  0.00000000E+00  0.00000000E+00
  0.00000000E+00  0.00000000E+00  0.00000000E+00
  0.00000000E+00  0.00000000E+00  0.00000000E+00
  0.00000000E+00  0.00000000E+00  0.00000000E+00
  0.00000000E+00  0.00000000E+00  0.00000000E+00
  0.00000000E+00  0.00000000E+00  0.00000000E+00
  0.00000000E+00  0.00000000E+00  0.00000000E+00
  0.00000000E+00  0.00000000E+00  0.00000000E+00
  0.00000000E+00  0.00000000E+00  0.00000000E+00
  0.00000000E+00  0.00000000E+00  0.00000000E+00
  0.00000000E+00  0.00000000E+00  0.00000000E+00
  0.00000000E+00  0.00000000E+00  0.00000000E+00
  0.00000000E+00  0.00000000E+00  0.00000000E+00
  0.00000000E+00  0.00000000E+00  0.00000000E+00
  0.00000000E+00  0.00000000E+00  0.00000000E+00
  0.00000000E+00  0.00000000E+00  0.00000000E+00
  0.00000000E+00  0.00000000E+00  0.00000000E+00
  0.00000000E+00  0.00000000E+00  0.00000000E+00
  0.00000000E+00  0.00000000E+00  0.00000000E+00
  0.00000000E+00  0.00000000E+00  0.00000000E+00
  0.00000000E+00  0.00000000E+00  0.00000000E+00
  0.00000000E+00  0.00000000E+00  0.00000000E+00
  0.00000000E+00  0.00000000E+00  0.00000000E+00
  0.00000000E+00  0.00000000E+00  0.00000000E+00
  0.00000000E+00  0.00000000E+00  0.00000000E+00
  0.00000000E+00  0.00000000E+00  0.00000000E+00
  0.00000000E+00  0.00000000E+00  0.00000000E+00
  0.00000000E+00  0.00000000E+00  0.00000000E+00
  0.00000000E+00  0.00000000E+00  0.00000000E+00
  0.00000000E+00  0.00000000E+00  0.00000000E+00
  0.00000000E+00  0.00000000E+00  0.00000000E+00
  0.00000000E+00  0.00000000E+00  0.00000000E+00
  0.00000000E+00  0.00000000E+00  0.00000000E+00
  0.00000000E+00  0.00000000E+00  0.00000000E+00
  0.00000000E+00  0.00000000E+00  0.00000000E+00
  0.00000000E+00  0.00000000E+00  0.00000000E+00
  0.00000000E+00  0.00000000E+00  0.00000000E+00
  0.00000000E+00  0.00000000E+00  0.00000000E+00
  0.00000000E+00  0.00000000E+00  0.00000000E+00
  0.00000000E+00  0.00000000E+00  0.00000000E+00
  0.00000000E+00  0.00000000E+00  0.00000000E+00
  0.00000000E+00  0.00000000E+00  0.00000000E+00
  0.00000000E+00  0.00000000E+00  0.00000000E+00
  0.00000000E+00  0.00000000E+00  0.00000000E+00
  0.00000000E+00  0.00000000E+00  0.00000000E+00
  0.00000000E+00  0.00000000E+00  0.00000000E+00
  0.00000000E+00  0.00000000E+00  0.00000000E+00
  0.00000000E+00  0.00000000E+00  0.00000000E+00
  0.00000000E+00  0.00000000E+00  0.00000000E+00
  0.00000000E+00  0.00000000E+00  0.00000000E+00
  0.00000000E+00  0.00000000E+00  0.00000000E+00
  0.00000000E+00  0.00000000E+00  0.00000000E+00
  0.00000000E+00  0.00000000E+00  0.00000000E+00
  0.00000000E+00  0.00000000E+00  0.00000000E+00
  0.00000000E+00  0.00000000E+00  0.00000000E+00
  0.00000000E+00  0.00000000E+00  0.00000000E+00
  0.00000000E+00  0.00000000E+00  0.00000000E+00
  0.00000000E+00  0.00000000E+00  0.00000000E+00
  0.00000000E+00  0.00000000E+00  0.00000000E+00
  0.00000000E+00  0.00000000E+00  0.00000000E+00
  0.00000000E+00  0.00000000E+00  0.00000000E+00
  0.00000000E+00  0.00000000E+00  0.00000000E+00
  0.00000000E+00  0.00000000E+00  0.00000000E+00
  0.00000000E+00  0.00000000E+00  0.00000000E+00
  0.00000000E+00  0.00000000E+00  0.00000000E+00
  0.00000000E+00  0.00000000E+00  0.00000000E+00
  0.00000000E+00  0.00000000E+00  0.00000000E+00
  0.00000000E+00  0.00000000E+00  0.00000000E+00
  0.00000000E+00  0.00000000E+00  0.00000000E+00
  0.00000000E+00  0.00000000E+00  0.00000000E+00
  0.00000000E+00  0.00000000E+00  0.00000000E+00
  0.00000000E+00  0.00000000E+00  0.00000000E+00
  0.00000000E+00  0.00000000E+00  0.00000000E+00
  0.00000000E+00  0.00000000E+00  0.00000000E+00
  0.00000000E+00  0.00000000E+00  0.00000000E+00
  0.00000000E+00  0.00000000E+00  0.00000000E+00
  0.00000000E+00  0.00000000E+00  0.00000000E+00
  0.00000000E+00  0.00000000E+00  0.00000000E+00
  0.00000000E+00  0.00000000E+00  0.00000000E+00
  0.00000000E+00  0.00000000E+00  0.00000000E+00
  0.00000000E+00  0.00000000E+00  0.00000000E+00
  0.00000000E+00  0.00000000E+00  0.00000000E+00
  0.00000000E+00  0.00000000E+00  0.00000000E+00
  0.00000000E+00  0.00000000E+00  0.00000000E+00
  0.00000000E+00  0.00000000E+00  0.00000000E+00
  0.00000000E+00  0.00000000E+00  0.00000000E+00
  0.00000000E+00  0.00000000E+00  0.00000000E+00
  0.00000000E+00  0.00000000E+00  0.00000000E+00
  0.00000000E+00  0.00000000E+00  0.00000000E+00
  0.00000000E+00  0.00000000E+00  0.00000000E+00
  0.00000000E+00  0.00000000E+00  0.00000000E+00
  0.00000000E+00  0.00000000E+00  0.00000000E+00
  0.00000000E+00  0.00000000E+00  0.00000000E+00
  0.00000000E+00  0.00000000E+00  0.00000000E+00
  0.00000000E+00  0.00000000E+00  0.00000000E+00
  0.00000000E+00  0.00000000E+00  0.00000000E+00
  0.00000000E+00  0.00000000E+00  0.00000000E+00
  0.00000000E+00  0.00000000E+00  0.00000000E+00
  0.00000000E+00  0.00000000E+00  0.00000000E+00
  0.00000000E+00  0.00000000E+00  0.00000000E+00
  0.00000000E+00  0.00000000E+00  0.00000000E+00
  0.00000000E+00  0.00000000E+00  0.00000000E+00
  0.00000000E+00  0.00000000E+00  0.00000000E+00
  0.00000000E+00  0.00000000E+00  0.00000000E+00
  0.00000000E+00  0.00000000E+00  0.00000000E+00
  0.00000000E+00  0.00000000E+00  0.00000000E+00
  0.00000000E+00  0.00000000E+00  0.00000000E+00
  0.00000000E+00  0.00000000E+00  0.00000000E+00
  0.00000000E+00  0.00000000E+00  0.00000000E+00
  0.00000000E+00  0.00000000E+00  0.00000000E+00
  0.00000000E+00  0.00000000E+00  0.00000000E+00
  0.00000000E+00  0.00000000E+00  0.00000000E+00
