Primitive Cell                          
   1.00000000000000     
    10.4368897906550924    0.0070586227507107    0.0005714386026094
    -5.2322461139468004    9.1102158745586905    0.0382810569271766
    -0.1059856836736006   -0.1354169047111225    9.9546085744908570
   Nb   P    O    Li
    12     6    48     6
Selective dynamics
Direct
  0.5886035330194801  0.2789826827523925  0.0562374637733072   T   T   T
  0.9542000420336123  0.9752750821528906  0.0719085261383086   T   T   T
  0.2966036949645030  0.6449867790305532  0.0860137178377514   T   T   T
  0.6139394292281395  0.7750842703298204  0.3063132217018705   T   T   T
  0.0846769239064571  0.3028218900417983  0.3200951202246145   T   T   T
  0.1384528078340921  0.8284449953159836  0.3391194951543994   T   T   T
  0.2752152462130866  0.6238180000356408  0.5543633438880420   T   T   T
  0.6265217624016444  0.3207346330599989  0.5822655987073446   T   T   T
  0.9203172138325328  0.9533177086141791  0.5798244972767108   T   T   T
  0.2675766876706263  0.1126156084196666  0.8013593193657442   T   T   T
  0.7853118935177861  0.1483720951775354  0.8333525498460119   T   T   T
  0.7571033204487634  0.6229976992349364  0.8329281032802101   T   T   T
  0.8657460337974072  0.4566097943658818  0.3033870648310213   T   T   T
  0.4579533789912063  0.3964854922653203  0.3128452994364750   T   T   T
  0.5120004760913019  0.0444150423274436  0.3394544429670390   T   T   T
  0.4085153796921617  0.8875011962088664  0.8056594686332588   T   T   T
  0.3857196173596478  0.4895306820680574  0.8131094981512774   T   T   T
  0.0248592041925946  0.5122869649031117  0.8436752123998943   T   T   T
  0.4962601383564973  0.7120921743007429  0.1382820380245846   T   T   T
  0.0661996565549643  0.1590698301398206  0.1603391473579734   T   T   T
  0.2116794929766002  0.4604126349690105  0.1682784875277790   T   T   T
  0.4449742298379533  0.3472757517280129  0.1653565310056848   T   T   T
  0.0948303596328870  0.8986702685257271  0.1758133138427098   T   T   T
  0.2551346464476083  0.7619021936426620  0.1983313254170440   T   T   T
  0.7951015009878901  0.8682974389567093  0.1978257276626607   T   T   T
  0.5054025395581547  0.1111924950527268  0.2046427778590996   T   T   T
  0.7322516420429181  0.4064357413381927  0.2101214302687495   T   T   T
  0.9316214241652219  0.3549088552454407  0.2690254593325250   T   T   T
  0.9717845078141352  0.6204272807978413  0.2682395307807752   T   T   T
  0.5718215913564819  0.9391272919998883  0.3073948038638932   T   T   T
  0.5628010898918916  0.5656010287314288  0.3238658614509831   T   T   T
  0.2987007702613340  0.3385990447611462  0.3663435076531201   T   T   T
  0.3508028983160543  0.9712183514764376  0.3930159933588158   T   T   T
  0.5210315135146999  0.3284288803981639  0.4096410965733739   T   T   T
  0.9777283107717807  0.1415931951875251  0.4282247801262216   T   T   T
  0.4283136396502059  0.6928971672679083  0.4363202452040724   T   T   T
  0.6183594837379118  0.1458891684052901  0.4493682627990481   T   T   T
  0.0386638991517927  0.8885690891835694  0.4544173316666758   T   T   T
  0.8333539810806272  0.4447178727496706  0.4540431727273671   T   T   T
  0.1394303857577199  0.4371902490248658  0.4678554168872679   T   T   T
  0.7476161244667665  0.8532186621954665  0.4663770143261914   T   T   T
  0.1567749420024782  0.7021803939244222  0.4886734267872512   T   T   T
  0.6940605794935237  0.5092305654339313  0.6477925767328685   T   T   T
  0.1416087856169099  0.0987498335108512  0.6551458817554732   T   T   T
  0.4451311152957445  0.2291207307506937  0.6694619992052893   T   T   T
  0.3415914766869221  0.4803687742405742  0.6637211804730470   T   T   T
  0.7464628598203547  0.2622273925861336  0.6845629271575433   T   T   T
  0.8547493877362413  0.0724640520233564  0.6803600255831839   T   T   T
  0.8656265462604296  0.8028194120699794  0.7026468595599695   T   T   T
  0.3932161714894775  0.7725942187356978  0.7022260856169069   T   T   T
  0.1156359366161297  0.5524958010416796  0.7166329854958846   T   T   T
  0.3014087917168808  0.9440356811728208  0.7606072999313085   T   T   T
  0.9060324682896805  0.5552146917078247  0.8051723819074539   T   T   T
  0.5734375771190585  0.0065805911780501  0.7989577680087550   T   T   T
  0.5557795193708941  0.5982462672297899  0.8276080737341900   T   T   T
  0.3337028656035912  0.3303407356095676  0.8632860214743872   T   T   T
  0.9649295144489471  0.3456981959872181  0.8676772024031294   T   T   T
  0.3122700459582148  0.5471246571763402  0.9075082645542594   T   T   T
  0.1159825651606852  0.0303382683620015  0.9286262111182211   T   T   T
  0.6606544595864392  0.4450873641571533  0.9447718505851839   T   T   T
  0.8485867078879892  0.0383116225619986  0.9527197240143366   T   T   T
  0.3734458809816843  0.8370118915286469  0.9511468625688124   T   T   T
  0.4138598255966244  0.1453339631287776  0.9630607031595702   T   T   T
  0.0926602111129782  0.5961621870409388  0.9763035209772966   T   T   T
  0.8634404058955170  0.7540594135555025  0.9733983597192548   T   T   T
  0.7092500015832002  0.2077019811239325  0.9901476810022771   T   T   T
  0.2615455195187906  0.3165282926941657  0.0632691212258436   T   T   T
  0.9971044132830755  0.6951056389588288  0.0769972727660857   T   T   T
  0.3300702224803231  0.9615148351369243  0.0812709486820964   T   T   T
  0.8062164942986669  0.1664160998192727  0.5249479759619433   T   T   T
  0.2919477322770874  0.2904467986653643  0.5629989336570418   T   T   T
  0.9666944467814034  0.5824236272112060  0.5942738652702246   T   T   T
 
  0.00000000E+00  0.00000000E+00  0.00000000E+00
  0.00000000E+00  0.00000000E+00  0.00000000E+00
  0.00000000E+00  0.00000000E+00  0.00000000E+00
  0.00000000E+00  0.00000000E+00  0.00000000E+00
  0.00000000E+00  0.00000000E+00  0.00000000E+00
  0.00000000E+00  0.00000000E+00  0.00000000E+00
  0.00000000E+00  0.00000000E+00  0.00000000E+00
  0.00000000E+00  0.00000000E+00  0.00000000E+00
  0.00000000E+00  0.00000000E+00  0.00000000E+00
  0.00000000E+00  0.00000000E+00  0.00000000E+00
  0.00000000E+00  0.00000000E+00  0.00000000E+00
  0.00000000E+00  0.00000000E+00  0.00000000E+00
  0.00000000E+00  0.00000000E+00  0.00000000E+00
  0.00000000E+00  0.00000000E+00  0.00000000E+00
  0.00000000E+00  0.00000000E+00  0.00000000E+00
  0.00000000E+00  0.00000000E+00  0.00000000E+00
  0.00000000E+00  0.00000000E+00  0.00000000E+00
  0.00000000E+00  0.00000000E+00  0.00000000E+00
  0.00000000E+00  0.00000000E+00  0.00000000E+00
  0.00000000E+00  0.00000000E+00  0.00000000E+00
  0.00000000E+00  0.00000000E+00  0.00000000E+00
  0.00000000E+00  0.00000000E+00  0.00000000E+00
  0.00000000E+00  0.00000000E+00  0.00000000E+00
  0.00000000E+00  0.00000000E+00  0.00000000E+00
  0.00000000E+00  0.00000000E+00  0.00000000E+00
  0.00000000E+00  0.00000000E+00  0.00000000E+00
  0.00000000E+00  0.00000000E+00  0.00000000E+00
  0.00000000E+00  0.00000000E+00  0.00000000E+00
  0.00000000E+00  0.00000000E+00  0.00000000E+00
  0.00000000E+00  0.00000000E+00  0.00000000E+00
  0.00000000E+00  0.00000000E+00  0.00000000E+00
  0.00000000E+00  0.00000000E+00  0.00000000E+00
  0.00000000E+00  0.00000000E+00  0.00000000E+00
  0.00000000E+00  0.00000000E+00  0.00000000E+00
  0.00000000E+00  0.00000000E+00  0.00000000E+00
  0.00000000E+00  0.00000000E+00  0.00000000E+00
  0.00000000E+00  0.00000000E+00  0.00000000E+00
  0.00000000E+00  0.00000000E+00  0.00000000E+00
  0.00000000E+00  0.00000000E+00  0.00000000E+00
  0.00000000E+00  0.00000000E+00  0.00000000E+00
  0.00000000E+00  0.00000000E+00  0.00000000E+00
  0.00000000E+00  0.00000000E+00  0.00000000E+00
  0.00000000E+00  0.00000000E+00  0.00000000E+00
  0.00000000E+00  0.00000000E+00  0.00000000E+00
  0.00000000E+00  0.00000000E+00  0.00000000E+00
  0.00000000E+00  0.00000000E+00  0.00000000E+00
  0.00000000E+00  0.00000000E+00  0.00000000E+00
  0.00000000E+00  0.00000000E+00  0.00000000E+00
  0.00000000E+00  0.00000000E+00  0.00000000E+00
  0.00000000E+00  0.00000000E+00  0.00000000E+00
  0.00000000E+00  0.00000000E+00  0.00000000E+00
  0.00000000E+00  0.00000000E+00  0.00000000E+00
  0.00000000E+00  0.00000000E+00  0.00000000E+00
  0.00000000E+00  0.00000000E+00  0.00000000E+00
  0.00000000E+00  0.00000000E+00  0.00000000E+00
  0.00000000E+00  0.00000000E+00  0.00000000E+00
  0.00000000E+00  0.00000000E+00  0.00000000E+00
  0.00000000E+00  0.00000000E+00  0.00000000E+00
  0.00000000E+00  0.00000000E+00  0.00000000E+00
  0.00000000E+00  0.00000000E+00  0.00000000E+00
  0.00000000E+00  0.00000000E+00  0.00000000E+00
  0.00000000E+00  0.00000000E+00  0.00000000E+00
  0.00000000E+00  0.00000000E+00  0.00000000E+00
  0.00000000E+00  0.00000000E+00  0.00000000E+00
  0.00000000E+00  0.00000000E+00  0.00000000E+00
  0.00000000E+00  0.00000000E+00  0.00000000E+00
  0.00000000E+00  0.00000000E+00  0.00000000E+00
  0.00000000E+00  0.00000000E+00  0.00000000E+00
  0.00000000E+00  0.00000000E+00  0.00000000E+00
  0.00000000E+00  0.00000000E+00  0.00000000E+00
  0.00000000E+00  0.00000000E+00  0.00000000E+00
  0.00000000E+00  0.00000000E+00  0.00000000E+00
