Primitive Cell                          
   1.00000000000000     
     5.4942127059930010    0.0201950546331720   -0.0119598644257577
     0.0053322195493548    5.5071881822900135   -0.0193098470488567
     0.0345438236201318    0.1509510660058575   21.9747645448708013
   Nb   Si   O    Li
     8     4    32     8
Selective dynamics
Direct
  0.6904768571940210  0.2494933309622311  0.0842409041896701   T   T   T
  0.1912791604529573  0.7494415900386713  0.0992954381587623   T   T   T
  0.7785559305749601  0.7254925526240825  0.3335819076977060   T   T   T
  0.2723524352470861  0.2231913515692980  0.3501370964617792   T   T   T
  0.3165227322205340  0.8109318662289624  0.5831950333343912   T   T   T
  0.8219925532255630  0.3075664231436690  0.6005171655664157   T   T   T
  0.7638108320660635  0.7303598967087552  0.8337011003892698   T   T   T
  0.2714280886590146  0.2363901963726462  0.8497265987349323   T   T   T
  0.4890189098009330  0.0180046943111662  0.2170394673636693   T   T   T
  0.0227046032121834  0.5234805340823456  0.4669408843642699   T   T   T
  0.5262261554425791  0.0392490745813419  0.7166552492756892   T   T   T
  0.9861632625439327  0.5246155205173437  0.9665316402357291   T   T   T
  0.8571010616990264  0.2932038572370388  0.0000246533479711   T   T   T
  0.1067310125957164  0.7338161060488630  0.0088165953008073   T   T   T
  0.4886908960026730  0.0034546549145844  0.0620176821904863   T   T   T
  0.4847897774391967  0.5201029955836560  0.0698755977696450   T   T   T
  0.9846645603758404  0.0190690967277334  0.1131322710705476   T   T   T
  0.9888817118019446  0.5023368992975108  0.1204105631119390   T   T   T
  0.6073479870230756  0.2291423892468814  0.1742377819178103   T   T   T
  0.3591617249504253  0.7883737400024131  0.1829367737632950   T   T   T
  0.2713685527200198  0.1546956747521975  0.2564784824901452   T   T   T
  0.7227082351089251  0.9167476146017890  0.2566189742459315   T   T   T
  0.0448071279309588  0.5420087531509594  0.3102884811149096   T   T   T
  0.5278677497505058  0.5020181690434953  0.3212257929743174   T   T   T
  0.9934563449501042  0.0381673667935658  0.3653700680933696   T   T   T
  0.5058698983572754  0.0012684704881423  0.3687893667265314   T   T   T
  0.8125949871561389  0.6462564715827384  0.4246260045758845   T   T   T
  0.2547856575386547  0.3949740047745749  0.4327535848880970   T   T   T
  0.8886905548237465  0.3054456065164430  0.5064131183202178   T   T   T
  0.1255433284554215  0.7531293723200676  0.5071512131712979   T   T   T
  0.5017374231413925  0.0713543596255448  0.5593995180936915   T   T   T
  0.5432360575681869  0.5585704831002829  0.5710240572501775   T   T   T
  0.0119649291734021  0.0273550950107406  0.6150809594560727   T   T   T
  0.0460273898640438  0.5344353447183536  0.6208086025272621   T   T   T
  0.6283637354804057  0.2720147008674374  0.6776330419105392   T   T   T
  0.3933872255169248  0.8238152253329503  0.6769045493152461   T   T   T
  0.7549088054908637  0.9172303101940500  0.7532861755533204   T   T   T
  0.3016675632384818  0.1537005357029813  0.7567498685370779   T   T   T
  0.4863640027329197  0.5478681759172801  0.8158816534150048   T   T   T
  0.9986920617432702  0.5102658688094763  0.8146451120349454   T   T   T
  0.0236272526490993  0.0116111532283796  0.8617928200286400   T   T   T
  0.5385110175276395  0.0512497933047769  0.8723620050691281   T   T   T
  0.2187859780513364  0.4246323469174627  0.9261449878803774   T   T   T
  0.7674325410102085  0.6626183781969672  0.9269366076934631   T   T   T
  0.9606490780116701  0.1224138430349484  0.2031046232768361   T   T   T
  0.3197554520838821  0.5245135787376256  0.2433165796575452   T   T   T
  0.9154900984809657  0.9925001440504886  0.4554345948817300   T   T   T
  0.5198515854147345  0.3570675772455942  0.4932522790509850   T   T   T
  0.0524659586293055  0.9620850612613481  0.7056821335287609   T   T   T
  0.4010430314588476  0.5075308571578958  0.7246722598354864   T   T   T
  0.8131607871222712  0.0332804974150491  0.9399226023231577   T   T   T
  0.4578759231186424  0.6304956592752404  0.9813326523540766   T   T   T
 
  0.00000000E+00  0.00000000E+00  0.00000000E+00
  0.00000000E+00  0.00000000E+00  0.00000000E+00
  0.00000000E+00  0.00000000E+00  0.00000000E+00
  0.00000000E+00  0.00000000E+00  0.00000000E+00
  0.00000000E+00  0.00000000E+00  0.00000000E+00
  0.00000000E+00  0.00000000E+00  0.00000000E+00
  0.00000000E+00  0.00000000E+00  0.00000000E+00
  0.00000000E+00  0.00000000E+00  0.00000000E+00
  0.00000000E+00  0.00000000E+00  0.00000000E+00
  0.00000000E+00  0.00000000E+00  0.00000000E+00
  0.00000000E+00  0.00000000E+00  0.00000000E+00
  0.00000000E+00  0.00000000E+00  0.00000000E+00
  0.00000000E+00  0.00000000E+00  0.00000000E+00
  0.00000000E+00  0.00000000E+00  0.00000000E+00
  0.00000000E+00  0.00000000E+00  0.00000000E+00
  0.00000000E+00  0.00000000E+00  0.00000000E+00
  0.00000000E+00  0.00000000E+00  0.00000000E+00
  0.00000000E+00  0.00000000E+00  0.00000000E+00
  0.00000000E+00  0.00000000E+00  0.00000000E+00
  0.00000000E+00  0.00000000E+00  0.00000000E+00
  0.00000000E+00  0.00000000E+00  0.00000000E+00
  0.00000000E+00  0.00000000E+00  0.00000000E+00
  0.00000000E+00  0.00000000E+00  0.00000000E+00
  0.00000000E+00  0.00000000E+00  0.00000000E+00
  0.00000000E+00  0.00000000E+00  0.00000000E+00
  0.00000000E+00  0.00000000E+00  0.00000000E+00
  0.00000000E+00  0.00000000E+00  0.00000000E+00
  0.00000000E+00  0.00000000E+00  0.00000000E+00
  0.00000000E+00  0.00000000E+00  0.00000000E+00
  0.00000000E+00  0.00000000E+00  0.00000000E+00
  0.00000000E+00  0.00000000E+00  0.00000000E+00
  0.00000000E+00  0.00000000E+00  0.00000000E+00
  0.00000000E+00  0.00000000E+00  0.00000000E+00
  0.00000000E+00  0.00000000E+00  0.00000000E+00
  0.00000000E+00  0.00000000E+00  0.00000000E+00
  0.00000000E+00  0.00000000E+00  0.00000000E+00
  0.00000000E+00  0.00000000E+00  0.00000000E+00
  0.00000000E+00  0.00000000E+00  0.00000000E+00
  0.00000000E+00  0.00000000E+00  0.00000000E+00
  0.00000000E+00  0.00000000E+00  0.00000000E+00
  0.00000000E+00  0.00000000E+00  0.00000000E+00
  0.00000000E+00  0.00000000E+00  0.00000000E+00
  0.00000000E+00  0.00000000E+00  0.00000000E+00
  0.00000000E+00  0.00000000E+00  0.00000000E+00
  0.00000000E+00  0.00000000E+00  0.00000000E+00
  0.00000000E+00  0.00000000E+00  0.00000000E+00
  0.00000000E+00  0.00000000E+00  0.00000000E+00
  0.00000000E+00  0.00000000E+00  0.00000000E+00
  0.00000000E+00  0.00000000E+00  0.00000000E+00
  0.00000000E+00  0.00000000E+00  0.00000000E+00
  0.00000000E+00  0.00000000E+00  0.00000000E+00
  0.00000000E+00  0.00000000E+00  0.00000000E+00
