Primitive Cell                          
   1.00000000000000     
     6.6282599795522374   -0.0237390892320207    0.0190720173015658
    -1.3840066062695509    5.2957624263751155    0.0083397627883626
     0.0935955618417716    0.4644919929719178   16.8103736435122784
   Si   Nb   O    Li
     8     4    28     4
Selective dynamics
Direct
  0.4354278538051233  0.3936057547085738  0.0880307476991007   T   T   T
  0.0782331986693876  0.9630040385057015  0.1523803606104792   T   T   T
  0.1113750087352017  0.4772530903891621  0.4159577557132010   T   T   T
  0.4574425090164667  0.8711027007432506  0.4771893428675114   T   T   T
  0.0039434774517133  0.2807970950143428  0.5968198339973725   T   T   T
  0.3499920989849699  0.6752928848065451  0.6580113078630418   T   T   T
  0.3835398780551813  0.1888998355211982  0.9216811875065076   T   T   T
  0.0262593470170600  0.7585037052507957  0.9860414893211740   T   T   T
  0.5593370555208068  0.9167495311234362  0.2080075534294181   T   T   T
  0.5983180482654689  0.4199625328098833  0.3708254820881294   T   T   T
  0.8631205824909145  0.7320994546125235  0.7032631617853795   T   T   T
  0.9023619863072838  0.2352490183838896  0.8660643753978974   T   T   T
  0.0086533022091757  0.7408133348014729  0.0855857312788117   T   T   T
  0.1879650389974330  0.2416614977115827  0.1081393195582194   T   T   T
  0.4920639339955741  0.6897391335244549  0.1106684564577023   T   T   T
  0.5883987726994420  0.2321261799831973  0.1241410378743311   T   T   T
  0.8670213735799166  0.0176354748738135  0.1889064833778491   T   T   T
  0.2338836507446871  0.8858003925177869  0.2159557116048489   T   T   T
  0.5760380489638095  0.6436070198681350  0.2741790304977769   T   T   T
  0.5534551702823975  0.1331721116373501  0.2965026377475439   T   T   T
  0.9009065675275494  0.4808458518509156  0.3665937725816164   T   T   T
  0.2657527360393246  0.3424653363761365  0.3686646691846960   T   T   T
  0.2329664200993449  0.7812606324694258  0.4278301122978831   T   T   T
  0.6028143121967631  0.6988205803584151  0.4417489016739111   T   T   T
  0.5563967938775178  0.1704119876346795  0.4599260840243957   T   T   T
  0.0495876969405558  0.3376930357668968  0.5025615660927301   T   T   T
  0.4117085035207921  0.8148254495900460  0.5714115609667445   T   T   T
  0.9051904203659120  0.9815256286956213  0.6139999278861552   T   T   T
  0.8584244963473395  0.4528160315436551  0.6324455605230099   T   T   T
  0.2284783449663905  0.3711078102052809  0.6461906247925739   T   T   T
  0.1955433372656756  0.8098662410560635  0.7052888971371658   T   T   T
  0.5604840008913499  0.6720220423482033  0.7074411337913631   T   T   T
  0.9080948361872885  0.0190213108424473  0.7775142579494698   T   T   T
  0.8855930964907301  0.5084598310956352  0.7999179317615983   T   T   T
  0.2278038938094653  0.2663921860654028  0.8581223303162275   T   T   T
  0.5947104121109987  0.1343379436231018  0.8851573257674232   T   T   T
  0.8733054289822846  0.9199602196466188  0.9499866915744448   T   T   T
  0.9696722961599775  0.4624657889867976  0.9633886077862854   T   T   T
  0.2737827099526839  0.9104545346423265  0.9659527402911579   T   T   T
  0.4529754717719712  0.4112301927394881  0.9884766711021626   T   T   T
  0.8986687619802325  0.3534193751050196  0.1037787890715052   T   T   T
  0.2272128008331720  0.0047978669967748  0.3280700454980874   T   T   T
  0.2341078836882673  0.1475501731129825  0.7460002058585005   T   T   T
  0.5629342355124010  0.7983344768899698  0.9702709995635956   T   T   T
 
  0.00000000E+00  0.00000000E+00  0.00000000E+00
  0.00000000E+00  0.00000000E+00  0.00000000E+00
  0.00000000E+00  0.00000000E+00  0.00000000E+00
  0.00000000E+00  0.00000000E+00  0.00000000E+00
  0.00000000E+00  0.00000000E+00  0.00000000E+00
  0.00000000E+00  0.00000000E+00  0.00000000E+00
  0.00000000E+00  0.00000000E+00  0.00000000E+00
  0.00000000E+00  0.00000000E+00  0.00000000E+00
  0.00000000E+00  0.00000000E+00  0.00000000E+00
  0.00000000E+00  0.00000000E+00  0.00000000E+00
  0.00000000E+00  0.00000000E+00  0.00000000E+00
  0.00000000E+00  0.00000000E+00  0.00000000E+00
  0.00000000E+00  0.00000000E+00  0.00000000E+00
  0.00000000E+00  0.00000000E+00  0.00000000E+00
  0.00000000E+00  0.00000000E+00  0.00000000E+00
  0.00000000E+00  0.00000000E+00  0.00000000E+00
  0.00000000E+00  0.00000000E+00  0.00000000E+00
  0.00000000E+00  0.00000000E+00  0.00000000E+00
  0.00000000E+00  0.00000000E+00  0.00000000E+00
  0.00000000E+00  0.00000000E+00  0.00000000E+00
  0.00000000E+00  0.00000000E+00  0.00000000E+00
  0.00000000E+00  0.00000000E+00  0.00000000E+00
  0.00000000E+00  0.00000000E+00  0.00000000E+00
  0.00000000E+00  0.00000000E+00  0.00000000E+00
  0.00000000E+00  0.00000000E+00  0.00000000E+00
  0.00000000E+00  0.00000000E+00  0.00000000E+00
  0.00000000E+00  0.00000000E+00  0.00000000E+00
  0.00000000E+00  0.00000000E+00  0.00000000E+00
  0.00000000E+00  0.00000000E+00  0.00000000E+00
  0.00000000E+00  0.00000000E+00  0.00000000E+00
  0.00000000E+00  0.00000000E+00  0.00000000E+00
  0.00000000E+00  0.00000000E+00  0.00000000E+00
  0.00000000E+00  0.00000000E+00  0.00000000E+00
  0.00000000E+00  0.00000000E+00  0.00000000E+00
  0.00000000E+00  0.00000000E+00  0.00000000E+00
  0.00000000E+00  0.00000000E+00  0.00000000E+00
  0.00000000E+00  0.00000000E+00  0.00000000E+00
  0.00000000E+00  0.00000000E+00  0.00000000E+00
  0.00000000E+00  0.00000000E+00  0.00000000E+00
  0.00000000E+00  0.00000000E+00  0.00000000E+00
  0.00000000E+00  0.00000000E+00  0.00000000E+00
  0.00000000E+00  0.00000000E+00  0.00000000E+00
  0.00000000E+00  0.00000000E+00  0.00000000E+00
  0.00000000E+00  0.00000000E+00  0.00000000E+00
