Primitive Cell                          
   1.00000000000000     
     8.1594241312210176    0.0072961708130325   -0.0007555670853311
    -0.0285819540283421    7.6501275760856879   -0.0124525526236348
     0.0646910827661937    0.1345468718235556   16.1188697642451864
   Si   Hf   O    Li
    12     8    48    16
Selective dynamics
Direct
  0.7060503178709965  0.2150073018379146  0.0008008277636691   T   T   T
  0.1915518502255296  0.7203831302613111  0.0073235917702092   T   T   T
  0.4197512289515046  0.4897004192817391  0.2062679684011570   T   T   T
  0.9141587222967118  0.9869710018572135  0.2225101230067708   T   T   T
  0.1314414767790453  0.2125542706991368  0.4198441026802513   T   T   T
  0.6301466669357296  0.7126440673991610  0.4229901968274277   T   T   T
  0.1315434258301593  0.8803859040611002  0.5083547900618228   T   T   T
  0.6375504817401350  0.3859983921926897  0.5076920555594882   T   T   T
  0.4021114950402094  0.6054534735766879  0.7033175108259684   T   T   T
  0.9287784354484288  0.1131930572565096  0.7166107350763298   T   T   T
  0.2005409393726367  0.3878158486686090  0.9215697195514139   T   T   T
  0.6934801478176240  0.8795830971880889  0.9214641463795985   T   T   T
  0.0483565029288755  0.3504889876191370  0.1094838840952619   T   T   T
  0.5299688659737853  0.8800096769497614  0.1129357400787541   T   T   T
  0.7972426735607172  0.3778044778993248  0.3103513526781470   T   T   T
  0.2870093204857511  0.8509479745199116  0.3181452474503317   T   T   T
  0.7860948246047244  0.7435518161521060  0.6081549455944284   T   T   T
  0.2984768219835843  0.2146914344206081  0.6162861831863466   T   T   T
  0.0376509286948590  0.7283145669023412  0.8090298830410987   T   T   T
  0.5461997710828896  0.2417734076947440  0.8142708073305229   T   T   T
  0.6398166808975176  0.7668102045683654  0.0039130462033512   T   T   T
  0.3134719342475805  0.8616757831725792  0.0502698143055227   T   T   T
  0.5577004931399827  0.1201382340559647  0.0528878807465816   T   T   T
  0.8181453861517340  0.3509049895712835  0.0534152141376580   T   T   T
  0.0681471820257258  0.6222904081646732  0.0743460906939077   T   T   T
  0.5250808916380052  0.6058093405552043  0.1372079107182103   T   T   T
  0.2844371146536488  0.3616459695639875  0.1604484112539168   T   T   T
  0.0250986409155232  0.1145596534403737  0.1622599572351504   T   T   T
  0.7625454306103379  0.8818421166463892  0.1752816530998871   T   T   T
  0.9158620358419896  0.4622075961529646  0.2078527558618291   T   T   T
  0.4142391033197157  0.9609951203514839  0.2164286296072859   T   T   T
  0.3008902021161504  0.6167943802989413  0.2624525697927353   T   T   T
  0.0510369718192081  0.8596970533098798  0.2661653414367962   T   T   T
  0.5505054818744455  0.3841961924430066  0.2663703728651967   T   T   T
  0.8154203935811140  0.1059172405723032  0.2922357074242257   T   T   T
  0.2580260087831050  0.1286158994192022  0.3496463477803005   T   T   T
  0.5244879731864813  0.8338847421419544  0.3607557355136635   T   T   T
  0.7761583208971672  0.6125318615361124  0.3718787563589316   T   T   T
  0.0066397665023104  0.3555592011096849  0.3810208514916980   T   T   T
  0.6762156516855526  0.2711586563861843  0.4239782855292518   T   T   T
  0.2236037340757875  0.7683790416329401  0.4351515399173636   T   T   T
  0.0264207019882434  0.0421567870651458  0.4604617836884159   T   T   T
  0.5202587333977391  0.5519205253257908  0.4690685934774805   T   T   T
  0.2326306527912294  0.3101216769818933  0.4935218778203989   T   T   T
  0.7048784711112717  0.8395520411184663  0.4943608970784084   T   T   T
  0.0164470004037511  0.7300981048814918  0.5501200566205995   T   T   T
  0.7914310739178987  0.4861627124077614  0.5517106018980655   T   T   T
  0.2557423111645889  0.9741129059260416  0.5722957083318292   T   T   T
  0.5365936174847405  0.2630663588512263  0.5718296638072360   T   T   T
  0.2970410710863405  0.4947722148576190  0.6349273824701527   T   T   T
  0.8359461810610611  0.9889788568804434  0.6467678329019364   T   T   T
  0.5588261311642029  0.7201286733524057  0.6657964731050683   T   T   T
  0.0663536449294995  0.2374367950389811  0.6705569952955841   T   T   T
  0.9060963814986991  0.6423329738707082  0.7112824211670983   T   T   T
  0.4279464542907121  0.1300717449533337  0.7166619051998566   T   T   T
  0.2686254931254055  0.7222472780090214  0.7567405663720663   T   T   T
  0.7702774077913546  0.2188363914448104  0.7562956795904299   T   T   T
  0.5015838747984418  0.4825734821476786  0.7709038778918398   T   T   T
  0.0184718016047398  0.9931452311792341  0.7883488229751023   T   T   T
  0.7955564708228451  0.7390042986988590  0.8650049266489006   T   T   T
  0.0528159233905967  0.4808483848837568  0.8691685604035229   T   T   T
  0.5465405687277141  0.9781663243847802  0.8694289321564383   T   T   T
  0.3203360123455781  0.2508864871445908  0.8756199137288334   T   T   T
  0.6388923831735269  0.3477787724428225  0.9274345737789247   T   T   T
  0.1101578846151980  0.8215931215465275  0.9283435746100750   T   T   T
  0.8087452251579776  0.0505213152404309  0.9554880099968983   T   T   T
  0.3026225802706364  0.5523624795009141  0.9673164594211201   T   T   T
  0.1263114702118742  0.2577800170518785  0.9951106892775385   T   T   T
  0.7747767042587981  0.5975568948005971  0.1292781990558609   T   T   T
  0.0808114659324914  0.6494804922720547  0.2072585748324656   T   T   T
  0.2562443451625143  0.1470270693989235  0.2177561813795421   T   T   T
  0.6183617389076943  0.9720100689043178  0.2768069410869387   T   T   T
  0.4539883452521849  0.2810940271458335  0.3699767793711786   T   T   T
  0.7900571219530690  0.0488803888001215  0.4357289487958980   T   T   T
  0.9547308848351719  0.5593492872405292  0.4566516880784803   T   T   T
  0.2980165376579080  0.5576882194414168  0.5098187163589714   T   T   T
  0.0389150735467183  0.4851853547751830  0.6429582680490213   T   T   T
  0.6359498752652755  0.1214707772029229  0.6524134035551441   T   T   T
  0.6963587717753299  0.6260866884706715  0.7705736038288293   T   T   T
  0.3709491688902631  0.9338869564975383  0.7860435706885411   T   T   T
  0.0318322065810150  0.0591475740702663  0.9133763957033878   T   T   T
  0.8373479981607161  0.5133772594919535  0.9322074992881468   T   T   T
  0.3466213483956153  0.0857562562133154  0.9818068914783638   T   T   T
  0.5254821641134271  0.5419141683291286  0.0049531218668974   T   T   T
 
  0.00000000E+00  0.00000000E+00  0.00000000E+00
  0.00000000E+00  0.00000000E+00  0.00000000E+00
  0.00000000E+00  0.00000000E+00  0.00000000E+00
  0.00000000E+00  0.00000000E+00  0.00000000E+00
  0.00000000E+00  0.00000000E+00  0.00000000E+00
  0.00000000E+00  0.00000000E+00  0.00000000E+00
  0.00000000E+00  0.00000000E+00  0.00000000E+00
  0.00000000E+00  0.00000000E+00  0.00000000E+00
  0.00000000E+00  0.00000000E+00  0.00000000E+00
  0.00000000E+00  0.00000000E+00  0.00000000E+00
  0.00000000E+00  0.00000000E+00  0.00000000E+00
  0.00000000E+00  0.00000000E+00  0.00000000E+00
  0.00000000E+00  0.00000000E+00  0.00000000E+00
  0.00000000E+00  0.00000000E+00  0.00000000E+00
  0.00000000E+00  0.00000000E+00  0.00000000E+00
  0.00000000E+00  0.00000000E+00  0.00000000E+00
  0.00000000E+00  0.00000000E+00  0.00000000E+00
  0.00000000E+00  0.00000000E+00  0.00000000E+00
  0.00000000E+00  0.00000000E+00  0.00000000E+00
  0.00000000E+00  0.00000000E+00  0.00000000E+00
  0.00000000E+00  0.00000000E+00  0.00000000E+00
  0.00000000E+00  0.00000000E+00  0.00000000E+00
  0.00000000E+00  0.00000000E+00  0.00000000E+00
  0.00000000E+00  0.00000000E+00  0.00000000E+00
  0.00000000E+00  0.00000000E+00  0.00000000E+00
  0.00000000E+00  0.00000000E+00  0.00000000E+00
  0.00000000E+00  0.00000000E+00  0.00000000E+00
  0.00000000E+00  0.00000000E+00  0.00000000E+00
  0.00000000E+00  0.00000000E+00  0.00000000E+00
  0.00000000E+00  0.00000000E+00  0.00000000E+00
  0.00000000E+00  0.00000000E+00  0.00000000E+00
  0.00000000E+00  0.00000000E+00  0.00000000E+00
  0.00000000E+00  0.00000000E+00  0.00000000E+00
  0.00000000E+00  0.00000000E+00  0.00000000E+00
  0.00000000E+00  0.00000000E+00  0.00000000E+00
  0.00000000E+00  0.00000000E+00  0.00000000E+00
  0.00000000E+00  0.00000000E+00  0.00000000E+00
  0.00000000E+00  0.00000000E+00  0.00000000E+00
  0.00000000E+00  0.00000000E+00  0.00000000E+00
  0.00000000E+00  0.00000000E+00  0.00000000E+00
  0.00000000E+00  0.00000000E+00  0.00000000E+00
  0.00000000E+00  0.00000000E+00  0.00000000E+00
  0.00000000E+00  0.00000000E+00  0.00000000E+00
  0.00000000E+00  0.00000000E+00  0.00000000E+00
  0.00000000E+00  0.00000000E+00  0.00000000E+00
  0.00000000E+00  0.00000000E+00  0.00000000E+00
  0.00000000E+00  0.00000000E+00  0.00000000E+00
  0.00000000E+00  0.00000000E+00  0.00000000E+00
  0.00000000E+00  0.00000000E+00  0.00000000E+00
  0.00000000E+00  0.00000000E+00  0.00000000E+00
  0.00000000E+00  0.00000000E+00  0.00000000E+00
  0.00000000E+00  0.00000000E+00  0.00000000E+00
  0.00000000E+00  0.00000000E+00  0.00000000E+00
  0.00000000E+00  0.00000000E+00  0.00000000E+00
  0.00000000E+00  0.00000000E+00  0.00000000E+00
  0.00000000E+00  0.00000000E+00  0.00000000E+00
  0.00000000E+00  0.00000000E+00  0.00000000E+00
  0.00000000E+00  0.00000000E+00  0.00000000E+00
  0.00000000E+00  0.00000000E+00  0.00000000E+00
  0.00000000E+00  0.00000000E+00  0.00000000E+00
  0.00000000E+00  0.00000000E+00  0.00000000E+00
  0.00000000E+00  0.00000000E+00  0.00000000E+00
  0.00000000E+00  0.00000000E+00  0.00000000E+00
  0.00000000E+00  0.00000000E+00  0.00000000E+00
  0.00000000E+00  0.00000000E+00  0.00000000E+00
  0.00000000E+00  0.00000000E+00  0.00000000E+00
  0.00000000E+00  0.00000000E+00  0.00000000E+00
  0.00000000E+00  0.00000000E+00  0.00000000E+00
  0.00000000E+00  0.00000000E+00  0.00000000E+00
  0.00000000E+00  0.00000000E+00  0.00000000E+00
  0.00000000E+00  0.00000000E+00  0.00000000E+00
  0.00000000E+00  0.00000000E+00  0.00000000E+00
  0.00000000E+00  0.00000000E+00  0.00000000E+00
  0.00000000E+00  0.00000000E+00  0.00000000E+00
  0.00000000E+00  0.00000000E+00  0.00000000E+00
  0.00000000E+00  0.00000000E+00  0.00000000E+00
  0.00000000E+00  0.00000000E+00  0.00000000E+00
  0.00000000E+00  0.00000000E+00  0.00000000E+00
  0.00000000E+00  0.00000000E+00  0.00000000E+00
  0.00000000E+00  0.00000000E+00  0.00000000E+00
  0.00000000E+00  0.00000000E+00  0.00000000E+00
  0.00000000E+00  0.00000000E+00  0.00000000E+00
  0.00000000E+00  0.00000000E+00  0.00000000E+00
  0.00000000E+00  0.00000000E+00  0.00000000E+00
