Primitive Cell                          
   1.00000000000000     
     5.3919127184241447    0.0132025356212892    0.0231669089115307
    -2.7908896141890036    4.5366909231545760   -0.0370316934059286
    -1.3820788504883847    0.4067618635388622   36.8417874397915170
   Si   Ta   O    Li
    12     6    42     6
Selective dynamics
Direct
  0.0203734648376894  0.9756153406148513  0.0399253094013332   T   T   T
  0.1063923077481945  0.2359868154312892  0.1205042037799089   T   T   T
  0.4118643057792895  0.8401875370992755  0.2029910305184615   T   T   T
  0.4082656029001654  0.8690834260301799  0.2861765314421163   T   T   T
  0.8088580857873495  0.5748844434777780  0.3710100674788777   T   T   T
  0.8068653589117218  0.5983991725081736  0.4543944088392209   T   T   T
  0.1097995728163141  0.1995580559746841  0.5382271144330062   T   T   T
  0.0958358375247954  0.2430381204204934  0.6214338093212532   T   T   T
  0.4919016642421496  0.9220637627938970  0.7056532328032716   T   T   T
  0.2561915930908967  0.6678939666763739  0.7859204043395636   T   T   T
  0.6628874353815633  0.3769442969681194  0.8712234348037953   T   T   T
  0.6679885409225719  0.3731064310539409  0.9550615726194494   T   T   T
  0.7583296113431146  0.5406121625617999  0.1611682211910548   T   T   T
  0.1086644011387179  0.2220557960373171  0.3286085122131439   T   T   T
  0.4582454028427705  0.8984665117230293  0.4963275859521588   T   T   T
  0.7964903275655075  0.5784434271878851  0.6641259929984500   T   T   T
  0.9566637899035726  0.0241794940365381  0.8289353852146633   T   T   T
  0.3399575134347188  0.6727477583554773  0.9973723020506853   T   T   T
  0.1536212485222208  0.2668931438882325  0.0141919037743534   T   T   T
  0.6774948558515774  0.7453128698135529  0.0294363659029457   T   T   T
  0.2079410824479808  0.8117509952600415  0.0398509149371336   T   T   T
  0.9859167880282058  0.0772019940178126  0.0804586833281675   T   T   T
  0.4613793715743739  0.4562610700375132  0.1197834463524359   T   T   T
  0.9751405582051618  0.4440306751484044  0.1275593626165374   T   T   T
  0.9828411619670234  0.9564187550828578  0.1478522411022283   T   T   T
  0.5451229897864209  0.1284292158729130  0.1769232604733375   T   T   T
  0.5352865193974949  0.6284089235704258  0.1942047618479563   T   T   T
  0.0557700582637537  0.6310062483339394  0.2026918269174374   T   T   T
  0.5292587260123014  0.9832454071129106  0.2443028814830228   T   T   T
  0.2086462504820119  0.5088632780184952  0.2860306194893951   T   T   T
  0.2007862777095326  0.9890204350824590  0.2973995271738730   T   T   T
  0.7058376873854399  0.0065197214441852  0.3104620576115948   T   T   T
  0.5117247978263038  0.4380796636569499  0.3466497809439062   T   T   T
  0.0167829434583027  0.4554682210009489  0.3596797357000696   T   T   T
  0.0092496267975903  0.9352462136001236  0.3711797411210824   T   T   T
  0.6883004673650532  0.4596096237730762  0.4128538796802204   T   T   T
  0.1631763423643662  0.8033491525960059  0.4543778193109134   T   T   T
  0.6839235671018216  0.8088533817049068  0.4639189132774035   T   T   T
  0.6734793198319338  0.3080252244265651  0.4799867930668640   T   T   T
  0.2416962543297814  0.4885882715445788  0.5123901886845985   T   T   T
  0.2351626059625005  0.9907656327993593  0.5289596589609928   T   T   T
  0.7535313628636899  0.9930753330439259  0.5382001283784845   T   T   T
  0.2258067367104886  0.3413569885533647  0.5796976832204876   T   T   T
  0.8896354613890836  0.8852087630279684  0.6235784288325377   T   T   T
  0.8825339634989575  0.3659427124463051  0.6294447338597067   T   T   T
  0.3894980107105965  0.3936452150132794  0.6467373165644688   T   T   T
  0.2083008672820270  0.7871064164052015  0.6785332557462596   T   T   T
  0.7267259687956695  0.8172267129426132  0.7020453155591468   T   T   T
  0.6782080041998881  0.2796978048430248  0.7023231710090201   T   T   T
  0.3350369075197150  0.8255206193481825  0.7455706238135491   T   T   T
  0.1034227935788579  0.3072659017440813  0.7852754405131250   T   T   T
  0.0279076245868879  0.7627973445329772  0.7990140185015662   T   T   T
  0.5589534370329758  0.8178132714500634  0.8093476096921464   T   T   T
  0.3440218587489952  0.1992273892095824  0.8515354699132516   T   T   T
  0.8891493860749407  0.2993160148660934  0.8541185410132499   T   T   T
  0.7905399275993190  0.7316958566499565  0.8725506798704714   T   T   T
  0.6323606008390215  0.2433801884544877  0.9132819556070402   T   T   T
  0.5150086767619584  0.5705309000103043  0.9552983797775880   T   T   T
  0.0098833005667629  0.5890007095528631  0.9658758879262450   T   T   T
  0.5363884116546274  0.0783728275170148  0.9796006193642555   T   T   T
  0.5230795575786118  0.7652203539685161  0.0793524100379628   T   T   T
  0.9243932399327974  0.3488628019360789  0.2443948985408966   T   T   T
  0.2969599952379411  0.0883355501144578  0.4127487747246121   T   T   T
  0.6162275893607116  0.7163295881557445  0.5808687541781055   T   T   T
  0.0245135963857592  0.9727159244114461  0.7469682542953748   T   T   T
  0.6419519095854724  0.8613487410880580  0.9138255110795725   T   T   T
 
  0.00000000E+00  0.00000000E+00  0.00000000E+00
  0.00000000E+00  0.00000000E+00  0.00000000E+00
  0.00000000E+00  0.00000000E+00  0.00000000E+00
  0.00000000E+00  0.00000000E+00  0.00000000E+00
  0.00000000E+00  0.00000000E+00  0.00000000E+00
  0.00000000E+00  0.00000000E+00  0.00000000E+00
  0.00000000E+00  0.00000000E+00  0.00000000E+00
  0.00000000E+00  0.00000000E+00  0.00000000E+00
  0.00000000E+00  0.00000000E+00  0.00000000E+00
  0.00000000E+00  0.00000000E+00  0.00000000E+00
  0.00000000E+00  0.00000000E+00  0.00000000E+00
  0.00000000E+00  0.00000000E+00  0.00000000E+00
  0.00000000E+00  0.00000000E+00  0.00000000E+00
  0.00000000E+00  0.00000000E+00  0.00000000E+00
  0.00000000E+00  0.00000000E+00  0.00000000E+00
  0.00000000E+00  0.00000000E+00  0.00000000E+00
  0.00000000E+00  0.00000000E+00  0.00000000E+00
  0.00000000E+00  0.00000000E+00  0.00000000E+00
  0.00000000E+00  0.00000000E+00  0.00000000E+00
  0.00000000E+00  0.00000000E+00  0.00000000E+00
  0.00000000E+00  0.00000000E+00  0.00000000E+00
  0.00000000E+00  0.00000000E+00  0.00000000E+00
  0.00000000E+00  0.00000000E+00  0.00000000E+00
  0.00000000E+00  0.00000000E+00  0.00000000E+00
  0.00000000E+00  0.00000000E+00  0.00000000E+00
  0.00000000E+00  0.00000000E+00  0.00000000E+00
  0.00000000E+00  0.00000000E+00  0.00000000E+00
  0.00000000E+00  0.00000000E+00  0.00000000E+00
  0.00000000E+00  0.00000000E+00  0.00000000E+00
  0.00000000E+00  0.00000000E+00  0.00000000E+00
  0.00000000E+00  0.00000000E+00  0.00000000E+00
  0.00000000E+00  0.00000000E+00  0.00000000E+00
  0.00000000E+00  0.00000000E+00  0.00000000E+00
  0.00000000E+00  0.00000000E+00  0.00000000E+00
  0.00000000E+00  0.00000000E+00  0.00000000E+00
  0.00000000E+00  0.00000000E+00  0.00000000E+00
  0.00000000E+00  0.00000000E+00  0.00000000E+00
  0.00000000E+00  0.00000000E+00  0.00000000E+00
  0.00000000E+00  0.00000000E+00  0.00000000E+00
  0.00000000E+00  0.00000000E+00  0.00000000E+00
  0.00000000E+00  0.00000000E+00  0.00000000E+00
  0.00000000E+00  0.00000000E+00  0.00000000E+00
  0.00000000E+00  0.00000000E+00  0.00000000E+00
  0.00000000E+00  0.00000000E+00  0.00000000E+00
  0.00000000E+00  0.00000000E+00  0.00000000E+00
  0.00000000E+00  0.00000000E+00  0.00000000E+00
  0.00000000E+00  0.00000000E+00  0.00000000E+00
  0.00000000E+00  0.00000000E+00  0.00000000E+00
  0.00000000E+00  0.00000000E+00  0.00000000E+00
  0.00000000E+00  0.00000000E+00  0.00000000E+00
  0.00000000E+00  0.00000000E+00  0.00000000E+00
  0.00000000E+00  0.00000000E+00  0.00000000E+00
  0.00000000E+00  0.00000000E+00  0.00000000E+00
  0.00000000E+00  0.00000000E+00  0.00000000E+00
  0.00000000E+00  0.00000000E+00  0.00000000E+00
  0.00000000E+00  0.00000000E+00  0.00000000E+00
  0.00000000E+00  0.00000000E+00  0.00000000E+00
  0.00000000E+00  0.00000000E+00  0.00000000E+00
  0.00000000E+00  0.00000000E+00  0.00000000E+00
  0.00000000E+00  0.00000000E+00  0.00000000E+00
  0.00000000E+00  0.00000000E+00  0.00000000E+00
  0.00000000E+00  0.00000000E+00  0.00000000E+00
  0.00000000E+00  0.00000000E+00  0.00000000E+00
  0.00000000E+00  0.00000000E+00  0.00000000E+00
  0.00000000E+00  0.00000000E+00  0.00000000E+00
  0.00000000E+00  0.00000000E+00  0.00000000E+00
