Primitive Cell                          
   1.00000000000000     
     5.2180354879654463   -0.0202523082317334   -0.0113563988856677
    -2.5782401676597066    4.5249746925356513    0.0132912648197010
     0.0813548935194242   -0.1001022912059873   27.8420593384423434
   Ta   Al   O    Li
     8     4    32    12
Selective dynamics
Direct
  0.0443621390925770  0.0472956820444352  0.2267656248350107   T   T   T
  0.3800045891093191  0.7161897285191188  0.3132033506837288   T   T   T
  0.7157621769552875  0.3865549534824808  0.3994488940668290   T   T   T
  0.0608956362141129  0.0710400001241851  0.4820904382048212   T   T   T
  0.1405809246231016  0.0958794637388536  0.7267357462553719   T   T   T
  0.8044810271073501  0.4292352844968406  0.8131353654791766   T   T   T
  0.4690780978978850  0.7613447416432422  0.8993811141388335   T   T   T
  0.1251988456868034  0.0797123304798788  0.9820109683616423   T   T   T
  0.7956065628982785  0.4116323450827153  0.0453846947978178   T   T   T
  0.7127142049675257  0.3837882676128999  0.1669295678727494   T   T   T
  0.3914483024511739  0.7407327749073218  0.5453948068981092   T   T   T
  0.4728353280666582  0.7585652427988876  0.6668516377844185   T   T   T
  0.4564424430295588  0.1179201662289202  0.0217106355559693   T   T   T
  0.8449209899834358  0.7517882645982539  0.0223796703250088   T   T   T
  0.1033056789885975  0.3666389801289114  0.0312914810776022   T   T   T
  0.6843217173521552  0.3791581532522912  0.1052042019258437   T   T   T
  0.0135969367255626  0.7160253581460481  0.1901161641622977   T   T   T
  0.7492204130431475  0.0849165537559031  0.1904107338272212   T   T   T
  0.3757961483798198  0.3450526905191182  0.1901088593133409   T   T   T
  0.7162060004556352  0.7636425803080229  0.2738535971785865   T   T   T
  0.3288148262071289  0.9994356634080219  0.2738251493678590   T   T   T
  0.0937525978139035  0.3733558261611520  0.2747229792627834   T   T   T
  0.6611245794474385  0.0473107386048355  0.3569229472521300   T   T   T
  0.0439533218109389  0.6638351833933811  0.3559967010193645   T   T   T
  0.4323588884355445  0.4348309545238891  0.3575952579723065   T   T   T
  0.0127289391518701  0.3450662300759362  0.4391099218319070   T   T   T
  0.3939191290631072  0.0950981575019014  0.4422168608153285   T   T   T
  0.7689492596565870  0.7126235269502601  0.4423785424804336   T   T   T
  0.7306444601632620  0.0352095341773335  0.5220045710854038   T   T   T
  0.3423242066897743  0.4009555242854006  0.5220147151791821   T   T   T
  0.0839484736543525  0.7863152280636143  0.5314579602450991   T   T   T
  0.5021642987532999  0.7684325311181794  0.6051527236434779   T   T   T
  0.1719131139778582  0.4256482178231877  0.6897240226416557   T   T   T
  0.4361019451052428  0.0570817112707758  0.6906532819393618   T   T   T
  0.8095919618542595  0.7970430780303275  0.6899906639894411   T   T   T
  0.4682877419705491  0.3810071842528799  0.7738193175648149   T   T   T
  0.8560524852415412  0.1452673066674706  0.7736899158942308   T   T   T
  0.0908798027755324  0.7713080113044128  0.7747343741538728   T   T   T
  0.5233525653755962  0.0990330538538728  0.8568518295453629   T   T   T
  0.1404205264418010  0.4825517676736979  0.8560025583255353   T   T   T
  0.7521392322791556  0.7116758338629054  0.8575088339968460   T   T   T
  0.1722968724840754  0.8034470577165251  0.9391305578796860   T   T   T
  0.7916005618624098  0.0536428731710572  0.9421147317060203   T   T   T
  0.4168431402679857  0.4365581455200243  0.9422652835691494   T   T   T
  0.4635415281750639  0.7434043319722008  0.0080624513596632   T   T   T
  0.2683092894010599  0.2085722790097506  0.0828017532840022   T   T   T
  0.3807609553303308  0.7166364365036486  0.2051666135252361   T   T   T
  0.7144043107670797  0.3804027312734561  0.2916619292599449   T   T   T
  0.0455777132757902  0.0500431411733118  0.3372010674845427   T   T   T
  0.3934768206528005  0.7224994827117541  0.4201037697974144   T   T   T
  0.7236047500979907  0.4088258006153325  0.5080070437436817   T   T   T
  0.9183691289968863  0.9434621140242925  0.5829126481987217   T   T   T
  0.8050696396092292  0.4260089122595332  0.7048417791914687   T   T   T
  0.4702027564247047  0.7645899875758104  0.7916669371166805   T   T   T
  0.1391316206917566  0.0962105015295833  0.8372309568958016   T   T   T
  0.7920650138510865  0.4262220837099164  0.9200054050651829   T   T   T
 
  0.00000000E+00  0.00000000E+00  0.00000000E+00
  0.00000000E+00  0.00000000E+00  0.00000000E+00
  0.00000000E+00  0.00000000E+00  0.00000000E+00
  0.00000000E+00  0.00000000E+00  0.00000000E+00
  0.00000000E+00  0.00000000E+00  0.00000000E+00
  0.00000000E+00  0.00000000E+00  0.00000000E+00
  0.00000000E+00  0.00000000E+00  0.00000000E+00
  0.00000000E+00  0.00000000E+00  0.00000000E+00
  0.00000000E+00  0.00000000E+00  0.00000000E+00
  0.00000000E+00  0.00000000E+00  0.00000000E+00
  0.00000000E+00  0.00000000E+00  0.00000000E+00
  0.00000000E+00  0.00000000E+00  0.00000000E+00
  0.00000000E+00  0.00000000E+00  0.00000000E+00
  0.00000000E+00  0.00000000E+00  0.00000000E+00
  0.00000000E+00  0.00000000E+00  0.00000000E+00
  0.00000000E+00  0.00000000E+00  0.00000000E+00
  0.00000000E+00  0.00000000E+00  0.00000000E+00
  0.00000000E+00  0.00000000E+00  0.00000000E+00
  0.00000000E+00  0.00000000E+00  0.00000000E+00
  0.00000000E+00  0.00000000E+00  0.00000000E+00
  0.00000000E+00  0.00000000E+00  0.00000000E+00
  0.00000000E+00  0.00000000E+00  0.00000000E+00
  0.00000000E+00  0.00000000E+00  0.00000000E+00
  0.00000000E+00  0.00000000E+00  0.00000000E+00
  0.00000000E+00  0.00000000E+00  0.00000000E+00
  0.00000000E+00  0.00000000E+00  0.00000000E+00
  0.00000000E+00  0.00000000E+00  0.00000000E+00
  0.00000000E+00  0.00000000E+00  0.00000000E+00
  0.00000000E+00  0.00000000E+00  0.00000000E+00
  0.00000000E+00  0.00000000E+00  0.00000000E+00
  0.00000000E+00  0.00000000E+00  0.00000000E+00
  0.00000000E+00  0.00000000E+00  0.00000000E+00
  0.00000000E+00  0.00000000E+00  0.00000000E+00
  0.00000000E+00  0.00000000E+00  0.00000000E+00
  0.00000000E+00  0.00000000E+00  0.00000000E+00
  0.00000000E+00  0.00000000E+00  0.00000000E+00
  0.00000000E+00  0.00000000E+00  0.00000000E+00
  0.00000000E+00  0.00000000E+00  0.00000000E+00
  0.00000000E+00  0.00000000E+00  0.00000000E+00
  0.00000000E+00  0.00000000E+00  0.00000000E+00
  0.00000000E+00  0.00000000E+00  0.00000000E+00
  0.00000000E+00  0.00000000E+00  0.00000000E+00
  0.00000000E+00  0.00000000E+00  0.00000000E+00
  0.00000000E+00  0.00000000E+00  0.00000000E+00
  0.00000000E+00  0.00000000E+00  0.00000000E+00
  0.00000000E+00  0.00000000E+00  0.00000000E+00
  0.00000000E+00  0.00000000E+00  0.00000000E+00
  0.00000000E+00  0.00000000E+00  0.00000000E+00
  0.00000000E+00  0.00000000E+00  0.00000000E+00
  0.00000000E+00  0.00000000E+00  0.00000000E+00
  0.00000000E+00  0.00000000E+00  0.00000000E+00
  0.00000000E+00  0.00000000E+00  0.00000000E+00
  0.00000000E+00  0.00000000E+00  0.00000000E+00
  0.00000000E+00  0.00000000E+00  0.00000000E+00
  0.00000000E+00  0.00000000E+00  0.00000000E+00
  0.00000000E+00  0.00000000E+00  0.00000000E+00
