Primitive Cell                          
   1.00000000000000     
    13.7154290341738783   -0.0024745831416501    0.0045000115429388
     0.0017042566561928   13.7303253822453968   -0.1048689297001669
    -0.0009852019519524    0.0819622997387538    5.4215309127191009
   Si   Ta   O    Li
    12     8    48     8
Selective dynamics
Direct
  0.4822120112005237  0.4664775346991021  0.0647687378931678   T   T   T
  0.9860310855072854  0.9669515054197220  0.0653331236503050   T   T   T
  0.9358050935124425  0.7802835032255686  0.2968421550847680   T   T   T
  0.5327502593494700  0.2799948456264758  0.2967876288672926   T   T   T
  0.4345864354604174  0.6519716502787887  0.2883591102624976   T   T   T
  0.0338256194272333  0.1522411727737776  0.2886742665211486   T   T   T
  0.9811444167302028  0.4688486241427938  0.5568436390785578   T   T   T
  0.4872158801302007  0.9687167457620021  0.5564435497194822   T   T   T
  0.6672411056762115  0.5138417500892771  0.8104738322602572   T   T   T
  0.8012770880724105  0.0139247780889988  0.8097813475699596   T   T   T
  0.1727223896797341  0.9177652674337580  0.8310731424433015   T   T   T
  0.2954859839203152  0.4173844390492647  0.8299587106672988   T   T   T
  0.2716446746097816  0.0394090680339900  0.3098972468427732   T   T   T
  0.1966347430170146  0.5393999654756669  0.3092879801738135   T   T   T
  0.7007309535134709  0.8932003558795358  0.3032896457990901   T   T   T
  0.7677572924619938  0.3930383176817287  0.3038374333203109   T   T   T
  0.0642771030938647  0.6807910293998845  0.7965282231863569   T   T   T
  0.4041578904619456  0.1805234530165336  0.7968921434469038   T   T   T
  0.5653290100857333  0.7537616202120674  0.7970255610698800   T   T   T
  0.9032217416092436  0.2537652793961414  0.7975237983596060   T   T   T
  0.4419259800403594  0.7247396268014015  0.0466271239420166   T   T   T
  0.0266021324981125  0.2248992291664251  0.0468582899883998   T   T   T
  0.2504795982658408  0.9302146099495516  0.0575474213019618   T   T   T
  0.2174833613382532  0.4302649848436957  0.0559627387824122   T   T   T
  0.9541394963960457  0.7020167617493840  0.0726655513994814   T   T   T
  0.5144816715878662  0.2016334131310771  0.0727738202480737   T   T   T
  0.6314335502247346  0.8071597077034909  0.0722185349343079   T   T   T
  0.8368719149520629  0.3070118253389822  0.0726182063019323   T   T   T
  0.8225276820666565  0.8179106535699106  0.2510918449613513   T   T   T
  0.6459645066812243  0.3178076711645019  0.2509988116505824   T   T   T
  0.5081370488509478  0.5595294836724989  0.2336267023603185   T   T   T
  0.9600665440102389  0.0600181659685362  0.2340001802294651   T   T   T
  0.4593040795918739  0.3729955101839550  0.2389941017231294   T   T   T
  0.0090430650760780  0.8735216408973940  0.2396036875859906   T   T   T
  0.0710233781845062  0.4667588312835846  0.3565977029514187   T   T   T
  0.3975148568000151  0.9668444043881195  0.3559190635763372   T   T   T
  0.3224226088607054  0.6093272859551959  0.3025945834353010   T   T   T
  0.1458814567475812  0.1092449660552077  0.3033712638137800   T   T   T
  0.5815076188951167  0.9725765486520217  0.3697197008567201   T   T   T
  0.8870746413438155  0.4725153576656922  0.3693425505780823   T   T   T
  0.3267428023823840  0.1375271141218875  0.5295861776877260   T   T   T
  0.1417145708486061  0.6374813592008337  0.5295975561937141   T   T   T
  0.7004983700819736  0.4772263306628588  0.5408518004451963   T   T   T
  0.7681613334932464  0.9773304867493238  0.5401417595365956   T   T   T
  0.4629237691647816  0.6952471745648552  0.5550709083791432   T   T   T
  0.0056998278247349  0.1957475724899354  0.5553808829646272   T   T   T
  0.2194067040644612  0.9566303681845838  0.5764042681076802   T   T   T
  0.2493843024506148  0.4563482611015814  0.5746943718441031   T   T   T
  0.9526041031341634  0.7446318371035332  0.5779473077699322   T   T   T
  0.5158255918893033  0.2444683084602630  0.5780254846345727   T   T   T
  0.6568129877315982  0.8041385333455864  0.5668763628295892   T   T   T
  0.8117090493272912  0.3039460895811956  0.5671719712053545   T   T   T
  0.4842234999566770  0.8748879942886134  0.7447068334544937   T   T   T
  0.9840061742910606  0.3751281413479433  0.7454462930625354   T   T   T
  0.9809813977314406  0.5603710116446834  0.7487576438329739   T   T   T
  0.4872900568289182  0.0601253226594096  0.7486964152310804   T   T   T
  0.1280436266492302  0.8080117069914365  0.8166510468430843   T   T   T
  0.3401137567809229  0.3076555690423177  0.8163175691897351   T   T   T
  0.6294112436379891  0.6262502143704367  0.8146227146065712   T   T   T
  0.8391798721505950  0.1262368630432391  0.8142599175037901   T   T   T
  0.5731978881291724  0.4405793611510802  0.8792967790554655   T   T   T
  0.8952678011851418  0.9407569074303339  0.8795276436802624   T   T   T
  0.3880140456112642  0.4943576581854927  0.8880448854124054   T   T   T
  0.0802452342441526  0.9948470986947910  0.8883372229218125   T   T   T
  0.3216332991558417  0.1196104716782926  0.0334108695517870   T   T   T
  0.1464919896642130  0.6196674153431516  0.0333228306071476   T   T   T
  0.7174177990381665  0.9920449560744373  0.0196785362402139   T   T   T
  0.7509804587752669  0.4921169937232293  0.0203993430469183   T   T   T
  0.3914274633204613  0.8715537698313156  0.0558327091436013   T   T   T
  0.0768687907152525  0.3716361241672317  0.0559538039623177   T   T   T
  0.8921188744418984  0.5590482642596584  0.0555978557229793   T   T   T
  0.5762814291530631  0.0589578723488202  0.0553634202744533   T   T   T
  0.3682740195014631  0.6402202045308414  0.7889089259970774   T   T   T
  0.1003895427253383  0.1406588498067194  0.7896072174933479   T   T   T
  0.8646498302179282  0.7926695624429811  0.8338638666261673   T   T   T
  0.6039253335528088  0.2925560315643878  0.8337210660946326   T   T   T
 
  0.00000000E+00  0.00000000E+00  0.00000000E+00
  0.00000000E+00  0.00000000E+00  0.00000000E+00
  0.00000000E+00  0.00000000E+00  0.00000000E+00
  0.00000000E+00  0.00000000E+00  0.00000000E+00
  0.00000000E+00  0.00000000E+00  0.00000000E+00
  0.00000000E+00  0.00000000E+00  0.00000000E+00
  0.00000000E+00  0.00000000E+00  0.00000000E+00
  0.00000000E+00  0.00000000E+00  0.00000000E+00
  0.00000000E+00  0.00000000E+00  0.00000000E+00
  0.00000000E+00  0.00000000E+00  0.00000000E+00
  0.00000000E+00  0.00000000E+00  0.00000000E+00
  0.00000000E+00  0.00000000E+00  0.00000000E+00
  0.00000000E+00  0.00000000E+00  0.00000000E+00
  0.00000000E+00  0.00000000E+00  0.00000000E+00
  0.00000000E+00  0.00000000E+00  0.00000000E+00
  0.00000000E+00  0.00000000E+00  0.00000000E+00
  0.00000000E+00  0.00000000E+00  0.00000000E+00
  0.00000000E+00  0.00000000E+00  0.00000000E+00
  0.00000000E+00  0.00000000E+00  0.00000000E+00
  0.00000000E+00  0.00000000E+00  0.00000000E+00
  0.00000000E+00  0.00000000E+00  0.00000000E+00
  0.00000000E+00  0.00000000E+00  0.00000000E+00
  0.00000000E+00  0.00000000E+00  0.00000000E+00
  0.00000000E+00  0.00000000E+00  0.00000000E+00
  0.00000000E+00  0.00000000E+00  0.00000000E+00
  0.00000000E+00  0.00000000E+00  0.00000000E+00
  0.00000000E+00  0.00000000E+00  0.00000000E+00
  0.00000000E+00  0.00000000E+00  0.00000000E+00
  0.00000000E+00  0.00000000E+00  0.00000000E+00
  0.00000000E+00  0.00000000E+00  0.00000000E+00
  0.00000000E+00  0.00000000E+00  0.00000000E+00
  0.00000000E+00  0.00000000E+00  0.00000000E+00
  0.00000000E+00  0.00000000E+00  0.00000000E+00
  0.00000000E+00  0.00000000E+00  0.00000000E+00
  0.00000000E+00  0.00000000E+00  0.00000000E+00
  0.00000000E+00  0.00000000E+00  0.00000000E+00
  0.00000000E+00  0.00000000E+00  0.00000000E+00
  0.00000000E+00  0.00000000E+00  0.00000000E+00
  0.00000000E+00  0.00000000E+00  0.00000000E+00
  0.00000000E+00  0.00000000E+00  0.00000000E+00
  0.00000000E+00  0.00000000E+00  0.00000000E+00
  0.00000000E+00  0.00000000E+00  0.00000000E+00
  0.00000000E+00  0.00000000E+00  0.00000000E+00
  0.00000000E+00  0.00000000E+00  0.00000000E+00
  0.00000000E+00  0.00000000E+00  0.00000000E+00
  0.00000000E+00  0.00000000E+00  0.00000000E+00
  0.00000000E+00  0.00000000E+00  0.00000000E+00
  0.00000000E+00  0.00000000E+00  0.00000000E+00
  0.00000000E+00  0.00000000E+00  0.00000000E+00
  0.00000000E+00  0.00000000E+00  0.00000000E+00
  0.00000000E+00  0.00000000E+00  0.00000000E+00
  0.00000000E+00  0.00000000E+00  0.00000000E+00
  0.00000000E+00  0.00000000E+00  0.00000000E+00
  0.00000000E+00  0.00000000E+00  0.00000000E+00
  0.00000000E+00  0.00000000E+00  0.00000000E+00
  0.00000000E+00  0.00000000E+00  0.00000000E+00
  0.00000000E+00  0.00000000E+00  0.00000000E+00
  0.00000000E+00  0.00000000E+00  0.00000000E+00
  0.00000000E+00  0.00000000E+00  0.00000000E+00
  0.00000000E+00  0.00000000E+00  0.00000000E+00
  0.00000000E+00  0.00000000E+00  0.00000000E+00
  0.00000000E+00  0.00000000E+00  0.00000000E+00
  0.00000000E+00  0.00000000E+00  0.00000000E+00
  0.00000000E+00  0.00000000E+00  0.00000000E+00
  0.00000000E+00  0.00000000E+00  0.00000000E+00
  0.00000000E+00  0.00000000E+00  0.00000000E+00
  0.00000000E+00  0.00000000E+00  0.00000000E+00
  0.00000000E+00  0.00000000E+00  0.00000000E+00
  0.00000000E+00  0.00000000E+00  0.00000000E+00
  0.00000000E+00  0.00000000E+00  0.00000000E+00
  0.00000000E+00  0.00000000E+00  0.00000000E+00
  0.00000000E+00  0.00000000E+00  0.00000000E+00
  0.00000000E+00  0.00000000E+00  0.00000000E+00
  0.00000000E+00  0.00000000E+00  0.00000000E+00
  0.00000000E+00  0.00000000E+00  0.00000000E+00
  0.00000000E+00  0.00000000E+00  0.00000000E+00
