Primitive Cell                          
   1.00000000000000     
     5.1759247451486798    0.0111526373427595    0.0043468268101826
    -2.6401705929043211    4.6751873850751675   -0.0196141592769654
    -0.3375277510300981    0.6246043183304261   36.6361137960346213
   Si   Ta   O    Li
    12     6    42     6
Selective dynamics
Direct
  0.9365864373930890  0.0646648432052004  0.0681536675847028   T   T   T
  0.1691190996463732  0.1261041731302228  0.1491592641263324   T   T   T
  0.5100261826369845  0.8396426102115555  0.2328141479572636   T   T   T
  0.7593712156407122  0.8079536974639794  0.3130974101200152   T   T   T
  0.0504887069611897  0.4821440773449339  0.3986092640661028   T   T   T
  0.0256588785285885  0.4281642651856430  0.4822465381765184   T   T   T
  0.4215837400123164  0.1213547937478694  0.5656602393785235   T   T   T
  0.1351771724861166  0.0877634891569556  0.6455700286807513   T   T   T
  0.5271494879809140  0.7775319680814121  0.7305917962884791   T   T   T
  0.2450794366043496  0.7517718591691391  0.8108050821041033   T   T   T
  0.6433841571858636  0.4282246786838826  0.8961219262118618   T   T   T
  0.6432900573335729  0.4367442234953316  0.9806167619409081   T   T   T
  0.2909688213121697  0.7476805675308924  0.0237978902976224   T   T   T
  0.8392423714518742  0.4835834660358813  0.1909922257811658   T   T   T
  0.4034592784314697  0.1415817931113637  0.3562731477616978   T   T   T
  0.7263819802559937  0.7818049557727491  0.5244457368981514   T   T   T
  0.8303060252101133  0.4349125296040270  0.6892159039542278   T   T   T
  0.9412240573830815  0.0859901405491925  0.8538266702390800   T   T   T
  0.5686983794969009  0.6661493036739756  0.9989871913318638   T   T   T
  0.0753471796780190  0.3575162497635986  0.0436671040508543   T   T   T
  0.0460101211032224  0.8383730479476270  0.0566565787203999   T   T   T
  0.5723281738588071  0.8889232981642792  0.0668802376966440   T   T   T
  0.0744760835292411  0.1999549501952771  0.1084682389289995   T   T   T
  0.0600586868625896  0.7824320621225382  0.1509122553554718   T   T   T
  0.5258383677100440  0.2883998811070896  0.1540569965541394   T   T   T
  0.0260170464568859  0.2596592076936801  0.1765482030836978   T   T   T
  0.6541352473265576  0.7092771464615026  0.2049630713305248   T   T   T
  0.1537739054488441  0.6807358641241095  0.2274362042095603   T   T   T
  0.6198844521276499  0.1835325135250514  0.2309086354335577   T   T   T
  0.5942827468946632  0.7545094222642277  0.2730528818463043   T   T   T
  0.1222151681521311  0.0088826364360983  0.3121930853435586   T   T   T
  0.6662413191574927  0.4784206275419223  0.3246717181909915   T   T   T
  0.6147461009886968  0.9520462972027275  0.3386897287319854   T   T   T
  0.1998376622775240  0.3410971786421939  0.3738980956370384   T   T   T
  0.1550450967552948  0.8110108117890604  0.3868161345797319   T   T   T
  0.6876722058469724  0.3113865413110730  0.3994219513839283   T   T   T
  0.1714761562836671  0.4701678642896994  0.4405906647635049   T   T   T
  0.8182218241188579  0.5789289137310689  0.4830720445832242   T   T   T
  0.8048912542433939  0.0890054748710156  0.4898762685884748   T   T   T
  0.3118553420894372  0.5621878425506850  0.5087313540396607   T   T   T
  0.1459764230230078  0.9859531233367136  0.5372029463374730   T   T   T
  0.6629117776542870  0.4620844108819213  0.5617555806363939   T   T   T
  0.6070043628589374  0.9486972205877109  0.5635065315887786   T   T   T
  0.2514747431310127  0.0529090452803587  0.6053913761817000   T   T   T
  0.9700798536769213  0.2813463715356264  0.6460033689137461   T   T   T
  0.8969075160620719  0.7512721409814418  0.6552013132521211   T   T   T
  0.4238088207720665  0.2175011986665609  0.6722831886180245   T   T   T
  0.2472236711917901  0.6491653698925504  0.7030851502527966   T   T   T
  0.7732159923805000  0.1172290777019924  0.7255209327519268   T   T   T
  0.7057465634922195  0.5986381509795962  0.7283856559898396   T   T   T
  0.3678176007951279  0.7186705733054737  0.7709640465607848   T   T   T
  0.0803090006510772  0.9477467702238798  0.8100382067504626   T   T   T
  0.0109135652193828  0.4167741750552523  0.8209490533513701   T   T   T
  0.5317908449340365  0.8923257278058614  0.8376684429782841   T   T   T
  0.3502237835503692  0.2885989102586706  0.8710133794868682   T   T   T
  0.8664730053769318  0.7595443481560622  0.8847009583713898   T   T   T
  0.8390897575620642  0.2637170229217176  0.8965599756565084   T   T   T
  0.5134717463919998  0.4108064611761080  0.9380450326912424   T   T   T
  0.0020779272397817  0.5657085007962976  0.9793119582082497   T   T   T
  0.4607729650694097  0.1218898110440776  0.9994693723578862   T   T   T
  0.1914297989564560  0.6551316032737375  0.1051861778834819   T   T   T
  0.4498767092290379  0.2944415521535220  0.2749385098211761   T   T   T
  0.5324141770210957  0.4291164052468446  0.4416699037644634   T   T   T
  0.9398690699061163  0.5703629558364796  0.6071657678646574   T   T   T
  0.0462035671635732  0.2342427249830408  0.7720932930665825   T   T   T
  0.1276287518291142  0.4109765225917741  0.9382010898150810   T   T   T
 
  0.00000000E+00  0.00000000E+00  0.00000000E+00
  0.00000000E+00  0.00000000E+00  0.00000000E+00
  0.00000000E+00  0.00000000E+00  0.00000000E+00
  0.00000000E+00  0.00000000E+00  0.00000000E+00
  0.00000000E+00  0.00000000E+00  0.00000000E+00
  0.00000000E+00  0.00000000E+00  0.00000000E+00
  0.00000000E+00  0.00000000E+00  0.00000000E+00
  0.00000000E+00  0.00000000E+00  0.00000000E+00
  0.00000000E+00  0.00000000E+00  0.00000000E+00
  0.00000000E+00  0.00000000E+00  0.00000000E+00
  0.00000000E+00  0.00000000E+00  0.00000000E+00
  0.00000000E+00  0.00000000E+00  0.00000000E+00
  0.00000000E+00  0.00000000E+00  0.00000000E+00
  0.00000000E+00  0.00000000E+00  0.00000000E+00
  0.00000000E+00  0.00000000E+00  0.00000000E+00
  0.00000000E+00  0.00000000E+00  0.00000000E+00
  0.00000000E+00  0.00000000E+00  0.00000000E+00
  0.00000000E+00  0.00000000E+00  0.00000000E+00
  0.00000000E+00  0.00000000E+00  0.00000000E+00
  0.00000000E+00  0.00000000E+00  0.00000000E+00
  0.00000000E+00  0.00000000E+00  0.00000000E+00
  0.00000000E+00  0.00000000E+00  0.00000000E+00
  0.00000000E+00  0.00000000E+00  0.00000000E+00
  0.00000000E+00  0.00000000E+00  0.00000000E+00
  0.00000000E+00  0.00000000E+00  0.00000000E+00
  0.00000000E+00  0.00000000E+00  0.00000000E+00
  0.00000000E+00  0.00000000E+00  0.00000000E+00
  0.00000000E+00  0.00000000E+00  0.00000000E+00
  0.00000000E+00  0.00000000E+00  0.00000000E+00
  0.00000000E+00  0.00000000E+00  0.00000000E+00
  0.00000000E+00  0.00000000E+00  0.00000000E+00
  0.00000000E+00  0.00000000E+00  0.00000000E+00
  0.00000000E+00  0.00000000E+00  0.00000000E+00
  0.00000000E+00  0.00000000E+00  0.00000000E+00
  0.00000000E+00  0.00000000E+00  0.00000000E+00
  0.00000000E+00  0.00000000E+00  0.00000000E+00
  0.00000000E+00  0.00000000E+00  0.00000000E+00
  0.00000000E+00  0.00000000E+00  0.00000000E+00
  0.00000000E+00  0.00000000E+00  0.00000000E+00
  0.00000000E+00  0.00000000E+00  0.00000000E+00
  0.00000000E+00  0.00000000E+00  0.00000000E+00
  0.00000000E+00  0.00000000E+00  0.00000000E+00
  0.00000000E+00  0.00000000E+00  0.00000000E+00
  0.00000000E+00  0.00000000E+00  0.00000000E+00
  0.00000000E+00  0.00000000E+00  0.00000000E+00
  0.00000000E+00  0.00000000E+00  0.00000000E+00
  0.00000000E+00  0.00000000E+00  0.00000000E+00
  0.00000000E+00  0.00000000E+00  0.00000000E+00
  0.00000000E+00  0.00000000E+00  0.00000000E+00
  0.00000000E+00  0.00000000E+00  0.00000000E+00
  0.00000000E+00  0.00000000E+00  0.00000000E+00
  0.00000000E+00  0.00000000E+00  0.00000000E+00
  0.00000000E+00  0.00000000E+00  0.00000000E+00
  0.00000000E+00  0.00000000E+00  0.00000000E+00
  0.00000000E+00  0.00000000E+00  0.00000000E+00
  0.00000000E+00  0.00000000E+00  0.00000000E+00
  0.00000000E+00  0.00000000E+00  0.00000000E+00
  0.00000000E+00  0.00000000E+00  0.00000000E+00
  0.00000000E+00  0.00000000E+00  0.00000000E+00
  0.00000000E+00  0.00000000E+00  0.00000000E+00
  0.00000000E+00  0.00000000E+00  0.00000000E+00
  0.00000000E+00  0.00000000E+00  0.00000000E+00
  0.00000000E+00  0.00000000E+00  0.00000000E+00
  0.00000000E+00  0.00000000E+00  0.00000000E+00
  0.00000000E+00  0.00000000E+00  0.00000000E+00
  0.00000000E+00  0.00000000E+00  0.00000000E+00
