Primitive Cell                          
   1.00000000000000     
     6.1858814750741944    0.0117453988650292    0.0086920550737160
    -1.8137248319911372    6.0230363617174980    0.0057698170438817
     0.0629619631790685   -0.0396062076407841   15.2427072950436404
   P    Ga   O    Li
     8     4    28     4
Selective dynamics
Direct
  0.5482021074670627  0.0460604872943975  0.0113145255335496   T   T   T
  0.5309151686877627  0.5448293246079743  0.2072190270755456   T   T   T
  0.8732167977663536  0.9243801394359465  0.2698839937155384   T   T   T
  0.3707679200190981  0.9119280779785370  0.4439952835118106   T   T   T
  0.0313057101077305  0.5370181955342872  0.5133050575034659   T   T   T
  0.0286246945886077  0.0457711417264903  0.7078620390839063   T   T   T
  0.6919941268540981  0.6692206191366097  0.7759537309963207   T   T   T
  0.2032476154183840  0.6665849559986228  0.9493486155970885   T   T   T
  0.6608498609397415  0.5804342411770307  0.0008352033802765   T   T   T
  0.4127529364567977  0.0011077567516367  0.2189628633031333   T   T   T
  0.9079188748027249  0.9965597693155104  0.4969613269385960   T   T   T
  0.1622238338410611  0.5976228482742769  0.7238879217175267   T   T   T
  0.0012546920872154  0.6892636987469558  0.0037646223754635   T   T   T
  0.7160447099676688  0.9113050217989667  0.0255272004458575   T   T   T
  0.3981112455712363  0.0605093218237229  0.0903044335375327   T   T   T
  0.6640474478005629  0.5248275500780153  0.1248497476343502   T   T   T
  0.3666581824960957  0.6840768933008690  0.2004343275227214   T   T   T
  0.0784849565203274  0.9309569804817031  0.2114313009080320   T   T   T
  0.7378272703944333  0.0577868410796754  0.2221556051315474   T   T   T
  0.4142644703483924  0.3184403278664263  0.2488385545301028   T   T   T
  0.7200717367558767  0.6698089942686067  0.2798241037004914   T   T   T
  0.4222510680261351  0.9956344846923173  0.3513875662576282   T   T   T
  0.9478365384444203  0.9999381510365737  0.3630032340213134   T   T   T
  0.2078534625767219  0.6583702012124775  0.4359632528334814   T   T   T
  0.9281868413435603  0.3065231980078309  0.4765737630901370   T   T   T
  0.2416884968306334  0.0522075217977616  0.4934924760101751   T   T   T
  0.5752652403180818  0.8937164005956220  0.4960638814175411   T   T   T
  0.8560250171274291  0.6664325850227755  0.5212245870451966   T   T   T
  0.1828547734201678  0.5492208126774045  0.5939083316262241   T   T   T
  0.8959451864971513  0.0342212903613088  0.6231360344298338   T   T   T
  0.2022733426386125  0.9154734877404991  0.7087797480384452   T   T   T
  0.4875775211736340  0.6587048065774326  0.7181244555670077   T   T   T
  0.8296881603660751  0.5347013180641369  0.7276754704164077   T   T   T
  0.1177707010865134  0.2772485622004837  0.7463835937317285   T   T   T
  0.8366598716996236  0.9268734147971074  0.7820153587371266   T   T   T
  0.1276200542011807  0.5866686378438999  0.8571700407896117   T   T   T
  0.6408164058135100  0.5911620431526003  0.8692227856787227   T   T   T
  0.3723676602968382  0.9173893872931913  0.9365525353933037   T   T   T
  0.6710882870577066  0.2710721344472447  0.9701208516912203   T   T   T
  0.3330128989413979  0.5308916651389524  0.9984596222651518   T   T   T
  0.0331241966589317  0.9508760346284504  0.0827205161232314   T   T   T
  0.2472146960757655  0.2428725850964142  0.3621101354275353   T   T   T
  0.5463227333516159  0.6537895975360541  0.5873929377826741   T   T   T
  0.8371437398170940  0.3293719302652107  0.8476754386164274   T   T   T
 
  0.00000000E+00  0.00000000E+00  0.00000000E+00
  0.00000000E+00  0.00000000E+00  0.00000000E+00
  0.00000000E+00  0.00000000E+00  0.00000000E+00
  0.00000000E+00  0.00000000E+00  0.00000000E+00
  0.00000000E+00  0.00000000E+00  0.00000000E+00
  0.00000000E+00  0.00000000E+00  0.00000000E+00
  0.00000000E+00  0.00000000E+00  0.00000000E+00
  0.00000000E+00  0.00000000E+00  0.00000000E+00
  0.00000000E+00  0.00000000E+00  0.00000000E+00
  0.00000000E+00  0.00000000E+00  0.00000000E+00
  0.00000000E+00  0.00000000E+00  0.00000000E+00
  0.00000000E+00  0.00000000E+00  0.00000000E+00
  0.00000000E+00  0.00000000E+00  0.00000000E+00
  0.00000000E+00  0.00000000E+00  0.00000000E+00
  0.00000000E+00  0.00000000E+00  0.00000000E+00
  0.00000000E+00  0.00000000E+00  0.00000000E+00
  0.00000000E+00  0.00000000E+00  0.00000000E+00
  0.00000000E+00  0.00000000E+00  0.00000000E+00
  0.00000000E+00  0.00000000E+00  0.00000000E+00
  0.00000000E+00  0.00000000E+00  0.00000000E+00
  0.00000000E+00  0.00000000E+00  0.00000000E+00
  0.00000000E+00  0.00000000E+00  0.00000000E+00
  0.00000000E+00  0.00000000E+00  0.00000000E+00
  0.00000000E+00  0.00000000E+00  0.00000000E+00
  0.00000000E+00  0.00000000E+00  0.00000000E+00
  0.00000000E+00  0.00000000E+00  0.00000000E+00
  0.00000000E+00  0.00000000E+00  0.00000000E+00
  0.00000000E+00  0.00000000E+00  0.00000000E+00
  0.00000000E+00  0.00000000E+00  0.00000000E+00
  0.00000000E+00  0.00000000E+00  0.00000000E+00
  0.00000000E+00  0.00000000E+00  0.00000000E+00
  0.00000000E+00  0.00000000E+00  0.00000000E+00
  0.00000000E+00  0.00000000E+00  0.00000000E+00
  0.00000000E+00  0.00000000E+00  0.00000000E+00
  0.00000000E+00  0.00000000E+00  0.00000000E+00
  0.00000000E+00  0.00000000E+00  0.00000000E+00
  0.00000000E+00  0.00000000E+00  0.00000000E+00
  0.00000000E+00  0.00000000E+00  0.00000000E+00
  0.00000000E+00  0.00000000E+00  0.00000000E+00
  0.00000000E+00  0.00000000E+00  0.00000000E+00
  0.00000000E+00  0.00000000E+00  0.00000000E+00
  0.00000000E+00  0.00000000E+00  0.00000000E+00
  0.00000000E+00  0.00000000E+00  0.00000000E+00
  0.00000000E+00  0.00000000E+00  0.00000000E+00
