Primitive Cell                          
   1.00000000000000     
    10.2494308395448179    0.0143587470489681   -0.0076721052494399
    -0.0926888995784260    7.8579939042264293    0.0230989706514849
     0.0139052149308552   -0.3651015716746743   15.8331685300956906
   Si   Ta   O    Li
    16     8    56     8
Selective dynamics
Direct
  0.4060699789679916  0.2080645089220283  0.0039783348437936   T   T   T
  0.8706180860730228  0.7944545267059411  0.0218507584088599   T   T   T
  0.3867737813947656  0.8839822238566342  0.0834042314349759   T   T   T
  0.9214846929947242  0.4592815550426650  0.0852267386491761   T   T   T
  0.6104032141239628  0.5784059065228107  0.2797736087432980   T   T   T
  0.1423228219253119  0.1668520270481011  0.2876182200075732   T   T   T
  0.6567178598858732  0.2510566191601526  0.3508335829722569   T   T   T
  0.1236711796564975  0.8348285963797224  0.3616683343558904   T   T   T
  0.4129213652802619  0.0449187667566591  0.5192811439126714   T   T   T
  0.9102863239183137  0.5504036736229949  0.5265991923181232   T   T   T
  0.3862649152691020  0.3900146230070192  0.5837663030781854   T   T   T
  0.8930069227205522  0.9060057294288839  0.5876884119478518   T   T   T
  0.1330743305064388  0.6465545540419200  0.7832043837245948   T   T   T
  0.6403071375292342  0.1588300250034891  0.7849229545110177   T   T   T
  0.6093635834927511  0.5101266072505624  0.8432540516094917   T   T   T
  0.1223077696169241  0.9946302825427011  0.8493890545669416   T   T   T
  0.6094262755428517  0.5513783582002674  0.0595303481392619   T   T   T
  0.1071942793787883  0.0944741235011364  0.0676146424649815   T   T   T
  0.4229633425753079  0.9427448749412548  0.3017463595228733   T   T   T
  0.9205327885504104  0.4946780917657776  0.3083471270871598   T   T   T
  0.1881031577642460  0.7354218208128884  0.5755325680093506   T   T   T
  0.6888093919049325  0.2419495381621175  0.5760618332864098   T   T   T
  0.3365128433995466  0.3058298298981725  0.7918652236800767   T   T   T
  0.8371924256667782  0.8195120368498721  0.7963155985881656   T   T   T
  0.4582473059173680  0.0069645738327253  0.0088141006453242   T   T   T
  0.5167524175247920  0.3380850390677566  0.0406898945954808   T   T   T
  0.9747665950704061  0.6355561585176517  0.0385554367631968   T   T   T
  0.7742538288351852  0.4277445393452339  0.0499206100430456   T   T   T
  0.0217282279764248  0.3097846373440305  0.0595354898109690   T   T   T
  0.9490470886059796  0.9586822950095453  0.0611738140478906   T   T   T
  0.7249178427644196  0.7670750834603695  0.0609926645922769   T   T   T
  0.2289041637621310  0.8776267235261201  0.0658170513276204   T   T   T
  0.2844534761937112  0.2208901929713178  0.0705342498132353   T   T   T
  0.4533508526109102  0.6993207218864939  0.0727689563402478   T   T   T
  0.4189305253711311  0.9736454348818242  0.1764406711499689   T   T   T
  0.6067391192217499  0.5238278337318079  0.1808736016575736   T   T   T
  0.9218017145018820  0.4917043063283444  0.1868555214241354   T   T   T
  0.1122905304614292  0.1026733871729704  0.1908921362035798   T   T   T
  0.5110360551636219  0.7335778711746386  0.2974031996206392   T   T   T
  0.3037333728414922  0.1774219060467956  0.2993694143460957   T   T   T
  0.2533801352612031  0.8281130818120062  0.3024789373736567   T   T   T
  0.5781363108866842  0.0902452131679183  0.3091262976735294   T   T   T
  0.0789541759195416  0.3504864005955639  0.3081916991513367   T   T   T
  0.8034782610820201  0.2767202846385430  0.3145086184351840   T   T   T
  0.7558798579918644  0.6205622713769756  0.3133273738560121   T   T   T
  0.0129423555068513  0.7060570477810586  0.3248039809252674   T   T   T
  0.5540101336777425  0.4127588030870797  0.3336400513192714   T   T   T
  0.0739224809373340  0.0366762672060759  0.3583707158929030   T   T   T
  0.4177234398863590  0.9594794612162474  0.4265079922062398   T   T   T
  0.9222836118354394  0.4526969895562019  0.4363657003781753   T   T   T
  0.6686418516048960  0.2447371765102346  0.4537068447601200   T   T   T
  0.1605708209623202  0.7839592105965778  0.4574780324932419   T   T   T
  0.3618768357281894  0.2459866597622025  0.5046571538672282   T   T   T
  0.8594143920484001  0.7474584868575320  0.5206632730857805   T   T   T
  0.8384416529297525  0.0821834706538880  0.5479874722052784   T   T   T
  0.3275660213056355  0.5704152054739069  0.5539086956525523   T   T   T
  0.0527934961300858  0.5618356049235160  0.5745286759540278   T   T   T
  0.5494123145573013  0.0533671175530017  0.5745304790050767   T   T   T
  0.3151236709606309  0.9451416549200573  0.5856602865295599   T   T   T
  0.8132911828856351  0.4376209219841272  0.5874690922756116   T   T   T
  0.5438581740108646  0.3999734937828734  0.5965445124328994   T   T   T
  0.0514239140402992  0.9214609570489358  0.6023276804714115   T   T   T
  0.3085911535391404  0.3122722974303613  0.6651289578242228   T   T   T
  0.8197288644019878  0.8626006282861312  0.6768189919550167   T   T   T
  0.2072557176169738  0.7153902513944388  0.6990933958730494   T   T   T
  0.7197321332796989  0.2129210155017915  0.6988523644429137   T   T   T
  0.4848655358697300  0.1358308433028341  0.7626779896356553   T   T   T
  0.9736866308789729  0.6333891095328639  0.7722573858565553   T   T   T
  0.2174339179111371  0.0969378369482072  0.7836553051512212   T   T   T
  0.7146071125217475  0.6165461092739051  0.7860844026410021   T   T   T
  0.4685796305340943  0.4874200000905162  0.7938572900161418   T   T   T
  0.9792275332812324  0.9868623232783946  0.8038078428532245   T   T   T
  0.1939880133232492  0.4649322026990248  0.8111561996143166   T   T   T
  0.6903220573815005  0.9794170311539858  0.8236891884198059   T   T   T
  0.6657308134922104  0.3148505398206183  0.8538752530307505   T   T   T
  0.1646823649647686  0.7889623164052182  0.8614083524941591   T   T   T
  0.3665861924493186  0.2585829944685258  0.9090881827788309   T   T   T
  0.8506532514507938  0.8023232310302717  0.9200879414288536   T   T   T
  0.5928272707122844  0.6072036726267314  0.9339089586439755   T   T   T
  0.1233411370971993  0.0774837858773978  0.9430824001817868   T   T   T
  0.3725186566686176  0.2224364484297396  0.1812342152754880   T   T   T
  0.3774308366351633  0.3373968971613834  0.3841133981214568   T   T   T
  0.9092757660095145  0.1855341367754804  0.4257122421215627   T   T   T
  0.1790950059726555  0.0886466531161361  0.6574829600072647   T   T   T
  0.4527636427587325  0.9598640601696573  0.6778599617835184   T   T   T
  0.8344040258726935  0.4646936060316236  0.7155679050828923   T   T   T
  0.6178468442249141  0.8699504414411265  0.9478076626574463   T   T   T
  0.1505783671153580  0.7094587724267853  0.9888846473602726   T   T   T
 
  0.00000000E+00  0.00000000E+00  0.00000000E+00
  0.00000000E+00  0.00000000E+00  0.00000000E+00
  0.00000000E+00  0.00000000E+00  0.00000000E+00
  0.00000000E+00  0.00000000E+00  0.00000000E+00
  0.00000000E+00  0.00000000E+00  0.00000000E+00
  0.00000000E+00  0.00000000E+00  0.00000000E+00
  0.00000000E+00  0.00000000E+00  0.00000000E+00
  0.00000000E+00  0.00000000E+00  0.00000000E+00
  0.00000000E+00  0.00000000E+00  0.00000000E+00
  0.00000000E+00  0.00000000E+00  0.00000000E+00
  0.00000000E+00  0.00000000E+00  0.00000000E+00
  0.00000000E+00  0.00000000E+00  0.00000000E+00
  0.00000000E+00  0.00000000E+00  0.00000000E+00
  0.00000000E+00  0.00000000E+00  0.00000000E+00
  0.00000000E+00  0.00000000E+00  0.00000000E+00
  0.00000000E+00  0.00000000E+00  0.00000000E+00
  0.00000000E+00  0.00000000E+00  0.00000000E+00
  0.00000000E+00  0.00000000E+00  0.00000000E+00
  0.00000000E+00  0.00000000E+00  0.00000000E+00
  0.00000000E+00  0.00000000E+00  0.00000000E+00
  0.00000000E+00  0.00000000E+00  0.00000000E+00
  0.00000000E+00  0.00000000E+00  0.00000000E+00
  0.00000000E+00  0.00000000E+00  0.00000000E+00
  0.00000000E+00  0.00000000E+00  0.00000000E+00
  0.00000000E+00  0.00000000E+00  0.00000000E+00
  0.00000000E+00  0.00000000E+00  0.00000000E+00
  0.00000000E+00  0.00000000E+00  0.00000000E+00
  0.00000000E+00  0.00000000E+00  0.00000000E+00
  0.00000000E+00  0.00000000E+00  0.00000000E+00
  0.00000000E+00  0.00000000E+00  0.00000000E+00
  0.00000000E+00  0.00000000E+00  0.00000000E+00
  0.00000000E+00  0.00000000E+00  0.00000000E+00
  0.00000000E+00  0.00000000E+00  0.00000000E+00
  0.00000000E+00  0.00000000E+00  0.00000000E+00
  0.00000000E+00  0.00000000E+00  0.00000000E+00
  0.00000000E+00  0.00000000E+00  0.00000000E+00
  0.00000000E+00  0.00000000E+00  0.00000000E+00
  0.00000000E+00  0.00000000E+00  0.00000000E+00
  0.00000000E+00  0.00000000E+00  0.00000000E+00
  0.00000000E+00  0.00000000E+00  0.00000000E+00
  0.00000000E+00  0.00000000E+00  0.00000000E+00
  0.00000000E+00  0.00000000E+00  0.00000000E+00
  0.00000000E+00  0.00000000E+00  0.00000000E+00
  0.00000000E+00  0.00000000E+00  0.00000000E+00
  0.00000000E+00  0.00000000E+00  0.00000000E+00
  0.00000000E+00  0.00000000E+00  0.00000000E+00
  0.00000000E+00  0.00000000E+00  0.00000000E+00
  0.00000000E+00  0.00000000E+00  0.00000000E+00
  0.00000000E+00  0.00000000E+00  0.00000000E+00
  0.00000000E+00  0.00000000E+00  0.00000000E+00
  0.00000000E+00  0.00000000E+00  0.00000000E+00
  0.00000000E+00  0.00000000E+00  0.00000000E+00
  0.00000000E+00  0.00000000E+00  0.00000000E+00
  0.00000000E+00  0.00000000E+00  0.00000000E+00
  0.00000000E+00  0.00000000E+00  0.00000000E+00
  0.00000000E+00  0.00000000E+00  0.00000000E+00
  0.00000000E+00  0.00000000E+00  0.00000000E+00
  0.00000000E+00  0.00000000E+00  0.00000000E+00
  0.00000000E+00  0.00000000E+00  0.00000000E+00
  0.00000000E+00  0.00000000E+00  0.00000000E+00
  0.00000000E+00  0.00000000E+00  0.00000000E+00
  0.00000000E+00  0.00000000E+00  0.00000000E+00
  0.00000000E+00  0.00000000E+00  0.00000000E+00
  0.00000000E+00  0.00000000E+00  0.00000000E+00
  0.00000000E+00  0.00000000E+00  0.00000000E+00
  0.00000000E+00  0.00000000E+00  0.00000000E+00
  0.00000000E+00  0.00000000E+00  0.00000000E+00
  0.00000000E+00  0.00000000E+00  0.00000000E+00
  0.00000000E+00  0.00000000E+00  0.00000000E+00
  0.00000000E+00  0.00000000E+00  0.00000000E+00
  0.00000000E+00  0.00000000E+00  0.00000000E+00
  0.00000000E+00  0.00000000E+00  0.00000000E+00
  0.00000000E+00  0.00000000E+00  0.00000000E+00
  0.00000000E+00  0.00000000E+00  0.00000000E+00
  0.00000000E+00  0.00000000E+00  0.00000000E+00
  0.00000000E+00  0.00000000E+00  0.00000000E+00
  0.00000000E+00  0.00000000E+00  0.00000000E+00
  0.00000000E+00  0.00000000E+00  0.00000000E+00
  0.00000000E+00  0.00000000E+00  0.00000000E+00
  0.00000000E+00  0.00000000E+00  0.00000000E+00
  0.00000000E+00  0.00000000E+00  0.00000000E+00
  0.00000000E+00  0.00000000E+00  0.00000000E+00
  0.00000000E+00  0.00000000E+00  0.00000000E+00
  0.00000000E+00  0.00000000E+00  0.00000000E+00
  0.00000000E+00  0.00000000E+00  0.00000000E+00
  0.00000000E+00  0.00000000E+00  0.00000000E+00
  0.00000000E+00  0.00000000E+00  0.00000000E+00
  0.00000000E+00  0.00000000E+00  0.00000000E+00
