Primitive Cell                          
   1.00000000000000     
     6.9551345355318155    0.0168369576449633    0.0056376182481844
    -0.1675476320785255    9.7910372331041060    0.0033108618187837
    -0.0078794454857028    0.0177477687097596    7.8231431424324853
   P    Al   O    Li
     8     4    28     4
Selective dynamics
Direct
  0.8470643176041790  0.6280972522364507  0.1160919609626205   T   T   T
  0.0020373108510441  0.1095553930189652  0.1219088594855577   T   T   T
  0.5246572388804509  0.6158443472556598  0.3453848218832931   T   T   T
  0.3233181463193873  0.1369979371956305  0.3542790243292373   T   T   T
  0.9704470214265370  0.8550546276809996  0.6163053784276897   T   T   T
  0.7664249329440338  0.3780509832570118  0.6199609009387288   T   T   T
  0.2918131777568007  0.8893098699610320  0.8470146261957083   T   T   T
  0.4443632160255078  0.3665598101040572  0.8511573302184630   T   T   T
  0.6653815418303850  0.3392783041827627  0.2121918396168425   T   T   T
  0.1757493846193086  0.8439647527496348  0.2461914574585577   T   T   T
  0.1104310504674402  0.1523492538225852  0.7146766590076794   T   T   T
  0.6283093966422868  0.6554143540347255  0.7564090000858812   T   T   T
  0.2923832493085925  0.8906483675406776  0.0390634829697873   T   T   T
  0.8522579790323803  0.4704877726816434  0.1040382489631781   T   T   T
  0.0515741976089217  0.6866224547308022  0.1397196857164005   T   T   T
  0.2088286295386936  0.1724350848530207  0.1801248785404539   T   T   T
  0.8514920382787139  0.2030827811074687  0.1981207373684981   T   T   T
  0.9782016673987002  0.9698496766580718  0.2114276597945022   T   T   T
  0.4822021495562439  0.4830744053224549  0.2467958631382245   T   T   T
  0.3890803990768816  0.7242457633401287  0.2759045129509516   T   T   T
  0.7392761715464715  0.6653336810987582  0.2926770379453600   T   T   T
  0.5234884135537214  0.2000219871109152  0.3307166807987159   T   T   T
  0.3382531249475065  0.9803303008034590  0.3617857085630121   T   T   T
  0.7719545890205097  0.3891104318059817  0.4282799994911102   T   T   T
  0.0947393299636090  0.7972936991478790  0.4713405504400825   T   T   T
  0.2119287300265711  0.1982930642270375  0.5016421221214387   T   T   T
  0.5118822630132271  0.6130685222879393  0.5379950248032159   T   T   T
  0.9485852567861173  0.0114238825943644  0.6020216875275821   T   T   T
  0.7775664213270801  0.7844703617769255  0.6360106783375272   T   T   T
  0.5517160471766971  0.3283142345202776  0.6748615132349300   T   T   T
  0.9022618090489942  0.2709213115805937  0.6893115795854854   T   T   T
  0.8064361184377518  0.5104303684807192  0.7209665619882486   T   T   T
  0.3084900492590208  0.0277631063644748  0.7572237662615677   T   T   T
  0.4410708583680361  0.7936440918642589  0.7718991644541973   T   T   T
  0.0848954007852853  0.8238130424300181  0.7910915861183838   T   T   T
  0.2391196905439514  0.3098309873571523  0.8291361521838922   T   T   T
  0.4410464109238035  0.5247830679205023  0.8628352721575325   T   T   T
  0.9999945340880174  0.1081776600907745  0.9298750563590019   T   T   T
  0.7353073890103019  0.6927786294889700  0.9707049603776028   T   T   T
  0.5565538675293666  0.3031263708701601  0.9977627926190351   T   T   T
  0.3106670411635761  0.5995458078132287  0.0715790069359059   T   T   T
  0.7846480428580378  0.0988589383341321  0.4159446453434441   T   T   T
  0.4016995124267027  0.8295035379142703  0.5234686998379203   T   T   T
  0.9773994248721962  0.3908197156854811  0.8949216117095560   T   T   T
 
  0.00000000E+00  0.00000000E+00  0.00000000E+00
  0.00000000E+00  0.00000000E+00  0.00000000E+00
  0.00000000E+00  0.00000000E+00  0.00000000E+00
  0.00000000E+00  0.00000000E+00  0.00000000E+00
  0.00000000E+00  0.00000000E+00  0.00000000E+00
  0.00000000E+00  0.00000000E+00  0.00000000E+00
  0.00000000E+00  0.00000000E+00  0.00000000E+00
  0.00000000E+00  0.00000000E+00  0.00000000E+00
  0.00000000E+00  0.00000000E+00  0.00000000E+00
  0.00000000E+00  0.00000000E+00  0.00000000E+00
  0.00000000E+00  0.00000000E+00  0.00000000E+00
  0.00000000E+00  0.00000000E+00  0.00000000E+00
  0.00000000E+00  0.00000000E+00  0.00000000E+00
  0.00000000E+00  0.00000000E+00  0.00000000E+00
  0.00000000E+00  0.00000000E+00  0.00000000E+00
  0.00000000E+00  0.00000000E+00  0.00000000E+00
  0.00000000E+00  0.00000000E+00  0.00000000E+00
  0.00000000E+00  0.00000000E+00  0.00000000E+00
  0.00000000E+00  0.00000000E+00  0.00000000E+00
  0.00000000E+00  0.00000000E+00  0.00000000E+00
  0.00000000E+00  0.00000000E+00  0.00000000E+00
  0.00000000E+00  0.00000000E+00  0.00000000E+00
  0.00000000E+00  0.00000000E+00  0.00000000E+00
  0.00000000E+00  0.00000000E+00  0.00000000E+00
  0.00000000E+00  0.00000000E+00  0.00000000E+00
  0.00000000E+00  0.00000000E+00  0.00000000E+00
  0.00000000E+00  0.00000000E+00  0.00000000E+00
  0.00000000E+00  0.00000000E+00  0.00000000E+00
  0.00000000E+00  0.00000000E+00  0.00000000E+00
  0.00000000E+00  0.00000000E+00  0.00000000E+00
  0.00000000E+00  0.00000000E+00  0.00000000E+00
  0.00000000E+00  0.00000000E+00  0.00000000E+00
  0.00000000E+00  0.00000000E+00  0.00000000E+00
  0.00000000E+00  0.00000000E+00  0.00000000E+00
  0.00000000E+00  0.00000000E+00  0.00000000E+00
  0.00000000E+00  0.00000000E+00  0.00000000E+00
  0.00000000E+00  0.00000000E+00  0.00000000E+00
  0.00000000E+00  0.00000000E+00  0.00000000E+00
  0.00000000E+00  0.00000000E+00  0.00000000E+00
  0.00000000E+00  0.00000000E+00  0.00000000E+00
  0.00000000E+00  0.00000000E+00  0.00000000E+00
  0.00000000E+00  0.00000000E+00  0.00000000E+00
  0.00000000E+00  0.00000000E+00  0.00000000E+00
  0.00000000E+00  0.00000000E+00  0.00000000E+00
