Primitive Cell                          
   1.00000000000000     
     8.0827072978748937    0.0216796455002741    0.0039311096153837
    -0.1653180867978595    7.6723939943130155    0.0028413784645174
    -0.0119219883963696   -0.0081929323647542   13.5897565985740911
   Si   Zr   O    Li
     8     8    40    16
Selective dynamics
Direct
  0.6745015269841446  0.4439164069346688  0.1923908628178594   T   T   T
  0.1744941315728354  0.9439060940053423  0.1923829415487859   T   T   T
  0.4538791085739575  0.2489556527410244  0.4714565681639229   T   T   T
  0.9538853251381525  0.7489428529868647  0.4714540846126667   T   T   T
  0.2311312912329271  0.5470758979714532  0.6922564079467151   T   T   T
  0.7311279522741359  0.0470880481819549  0.6922610043229653   T   T   T
  0.9516400410275168  0.2416097447563175  0.9713983132269703   T   T   T
  0.4516343511477316  0.7416049160765752  0.9713958136416139   T   T   T
  0.8132674555234729  0.8582662268412520  0.0867547346641189   T   T   T
  0.3132636987539428  0.3582560546551505  0.0867715681023356   T   T   T
  0.8401723417254274  0.1147058420085685  0.3297599035152956   T   T   T
  0.3401642803743172  0.6147111216378249  0.3297647593828330   T   T   T
  0.0924930237520414  0.1325993936225416  0.5870629114204533   T   T   T
  0.5925002263659280  0.6326096979624296  0.5870770332996642   T   T   T
  0.0656094206115299  0.8762513871339905  0.8294928927910519   T   T   T
  0.5655944915039157  0.3762673644424837  0.8294939674855399   T   T   T
  0.0623238415751075  0.3951843289374040  0.0290766329325933   T   T   T
  0.5623250291178294  0.8951713603795994  0.0290747787571419   T   T   T
  0.8566679721012065  0.1124876924570302  0.0495290249451372   T   T   T
  0.3566714871979855  0.6124812114439138  0.0495278807958925   T   T   T
  0.7646619986833230  0.5816760974746558  0.1141371147301271   T   T   T
  0.2646485362856481  0.0816652911015154  0.1141307586876579   T   T   T
  0.5531147626357580  0.2994851771441844  0.1383114748712160   T   T   T
  0.0531050495995871  0.7994735302486831  0.1383143172761692   T   T   T
  0.7261834950525312  0.9458292256151850  0.2206594186332396   T   T   T
  0.2261807878839193  0.4458377145878387  0.2206609363275405   T   T   T
  0.8262107795768330  0.3473292144394264  0.2501231447252863   T   T   T
  0.3261970784664285  0.8473152947586939  0.2501132165499911   T   T   T
  0.5683953773363797  0.5592427537658864  0.2700952616670094   T   T   T
  0.0683879933667484  0.0592355464754348  0.2700853964501064   T   T   T
  0.3251987484838850  0.3644906106842001  0.4066379498397623   T   T   T
  0.8251991488424864  0.8644867433109837  0.4066384519848043   T   T   T
  0.1075439389138566  0.6604476088599043  0.4090176801389802   T   T   T
  0.6075528089803655  0.1604639448623502  0.4090297744247735   T   T   T
  0.9790504854289210  0.2208959774633712  0.4472935071682969   T   T   T
  0.4790333868246890  0.7209069909284267  0.4473046979237338   T   T   T
  0.3431758262245523  0.0957299097186848  0.5293517365990681   T   T   T
  0.8431650287572623  0.5957306534197215  0.5293510200875602   T   T   T
  0.0488817428906856  0.8784011541567764  0.5495272871388721   T   T   T
  0.5488849065183814  0.3784137155740268  0.5495348340106503   T   T   T
  0.1410990021348582  0.4095130526064779  0.6138072285662162   T   T   T
  0.6410994954879712  0.9095220823133587  0.6138161897934538   T   T   T
  0.8526506921477619  0.1920159011962141  0.6386637925919914   T   T   T
  0.3526473605301419  0.6920132461773747  0.6386628290954803   T   T   T
  0.1799047237637197  0.0452090504232956  0.7208868663923198   T   T   T
  0.6799025042926132  0.5452162314556048  0.7208961942108871   T   T   T
  0.0792437255608860  0.6432437361116570  0.7500627219456959   T   T   T
  0.5792270046474357  0.1432391182314348  0.7500626277917988   T   T   T
  0.3373512155489422  0.4316622301429192  0.7699067784830902   T   T   T
  0.8373601358114371  0.9316463483299913  0.7698993109848900   T   T   T
  0.0806060321931881  0.1260112697702169  0.9068767487384193   T   T   T
  0.5806150479009062  0.6260133272049515  0.9068935038224737   T   T   T
  0.7977324369370322  0.3297660637595996  0.9089735259406666   T   T   T
  0.2977363600878746  0.8297801594974317  0.9089750241030643   T   T   T
  0.9262036363059849  0.7697492167442803  0.9470013200537863   T   T   T
  0.4262033184351779  0.2697536941184850  0.9470160030421013   T   T   T
  0.6230064273285123  0.1715620272498626  0.0158385399862269   T   T   T
  0.1229982481020571  0.6715510656373382  0.0158314852769763   T   T   T
  0.4985548621687741  0.9926147093353705  0.1721820730973818   T   T   T
  0.9985653599191480  0.4926843536854832  0.1721926762963690   T   T   T
  0.6861026176327982  0.7576969461014968  0.3129680228821812   T   T   T
  0.1860567746862714  0.2577009913031603  0.3129860469180699   T   T   T
  0.1069946463605973  0.4361601038379987  0.4712027437434614   T   T   T
  0.6069963985927345  0.9361431653161247  0.4711967063674933   T   T   T
  0.7826661678542308  0.3193492023468778  0.5161013909809569   T   T   T
  0.2826699283931404  0.8193681994954360  0.5161119916026564   T   T   T
  0.9072056680786886  0.4976027512401160  0.6721927075957481   T   T   T
  0.4072140245167120  0.9976065699171173  0.6721942450805329   T   T   T
  0.2217452707950045  0.2326325596950269  0.8141097718031745   T   T   T
  0.7218043923492132  0.7325994713581991  0.8141408342120613   T   T   T
  0.7989925405698557  0.5539688632423747  0.9716116577065819   T   T   T
  0.2989987205069653  0.0539851729054419  0.9715961258494161   T   T   T
 
  0.00000000E+00  0.00000000E+00  0.00000000E+00
  0.00000000E+00  0.00000000E+00  0.00000000E+00
  0.00000000E+00  0.00000000E+00  0.00000000E+00
  0.00000000E+00  0.00000000E+00  0.00000000E+00
  0.00000000E+00  0.00000000E+00  0.00000000E+00
  0.00000000E+00  0.00000000E+00  0.00000000E+00
  0.00000000E+00  0.00000000E+00  0.00000000E+00
  0.00000000E+00  0.00000000E+00  0.00000000E+00
  0.00000000E+00  0.00000000E+00  0.00000000E+00
  0.00000000E+00  0.00000000E+00  0.00000000E+00
  0.00000000E+00  0.00000000E+00  0.00000000E+00
  0.00000000E+00  0.00000000E+00  0.00000000E+00
  0.00000000E+00  0.00000000E+00  0.00000000E+00
  0.00000000E+00  0.00000000E+00  0.00000000E+00
  0.00000000E+00  0.00000000E+00  0.00000000E+00
  0.00000000E+00  0.00000000E+00  0.00000000E+00
  0.00000000E+00  0.00000000E+00  0.00000000E+00
  0.00000000E+00  0.00000000E+00  0.00000000E+00
  0.00000000E+00  0.00000000E+00  0.00000000E+00
  0.00000000E+00  0.00000000E+00  0.00000000E+00
  0.00000000E+00  0.00000000E+00  0.00000000E+00
  0.00000000E+00  0.00000000E+00  0.00000000E+00
  0.00000000E+00  0.00000000E+00  0.00000000E+00
  0.00000000E+00  0.00000000E+00  0.00000000E+00
  0.00000000E+00  0.00000000E+00  0.00000000E+00
  0.00000000E+00  0.00000000E+00  0.00000000E+00
  0.00000000E+00  0.00000000E+00  0.00000000E+00
  0.00000000E+00  0.00000000E+00  0.00000000E+00
  0.00000000E+00  0.00000000E+00  0.00000000E+00
  0.00000000E+00  0.00000000E+00  0.00000000E+00
  0.00000000E+00  0.00000000E+00  0.00000000E+00
  0.00000000E+00  0.00000000E+00  0.00000000E+00
  0.00000000E+00  0.00000000E+00  0.00000000E+00
  0.00000000E+00  0.00000000E+00  0.00000000E+00
  0.00000000E+00  0.00000000E+00  0.00000000E+00
  0.00000000E+00  0.00000000E+00  0.00000000E+00
  0.00000000E+00  0.00000000E+00  0.00000000E+00
  0.00000000E+00  0.00000000E+00  0.00000000E+00
  0.00000000E+00  0.00000000E+00  0.00000000E+00
  0.00000000E+00  0.00000000E+00  0.00000000E+00
  0.00000000E+00  0.00000000E+00  0.00000000E+00
  0.00000000E+00  0.00000000E+00  0.00000000E+00
  0.00000000E+00  0.00000000E+00  0.00000000E+00
  0.00000000E+00  0.00000000E+00  0.00000000E+00
  0.00000000E+00  0.00000000E+00  0.00000000E+00
  0.00000000E+00  0.00000000E+00  0.00000000E+00
  0.00000000E+00  0.00000000E+00  0.00000000E+00
  0.00000000E+00  0.00000000E+00  0.00000000E+00
  0.00000000E+00  0.00000000E+00  0.00000000E+00
  0.00000000E+00  0.00000000E+00  0.00000000E+00
  0.00000000E+00  0.00000000E+00  0.00000000E+00
  0.00000000E+00  0.00000000E+00  0.00000000E+00
  0.00000000E+00  0.00000000E+00  0.00000000E+00
  0.00000000E+00  0.00000000E+00  0.00000000E+00
  0.00000000E+00  0.00000000E+00  0.00000000E+00
  0.00000000E+00  0.00000000E+00  0.00000000E+00
  0.00000000E+00  0.00000000E+00  0.00000000E+00
  0.00000000E+00  0.00000000E+00  0.00000000E+00
  0.00000000E+00  0.00000000E+00  0.00000000E+00
  0.00000000E+00  0.00000000E+00  0.00000000E+00
  0.00000000E+00  0.00000000E+00  0.00000000E+00
  0.00000000E+00  0.00000000E+00  0.00000000E+00
  0.00000000E+00  0.00000000E+00  0.00000000E+00
  0.00000000E+00  0.00000000E+00  0.00000000E+00
  0.00000000E+00  0.00000000E+00  0.00000000E+00
  0.00000000E+00  0.00000000E+00  0.00000000E+00
  0.00000000E+00  0.00000000E+00  0.00000000E+00
  0.00000000E+00  0.00000000E+00  0.00000000E+00
  0.00000000E+00  0.00000000E+00  0.00000000E+00
  0.00000000E+00  0.00000000E+00  0.00000000E+00
  0.00000000E+00  0.00000000E+00  0.00000000E+00
  0.00000000E+00  0.00000000E+00  0.00000000E+00
