Primitive Cell                          
   1.00000000000000     
     7.6669107577172024   -0.0078116505540495   -0.0047082626071113
     0.0250526373263595    7.6388903456628867    0.0028126474301570
     0.4700052890546216    0.0245095158170065   20.7648498466830880
   Si   Ta   O    Li
    16     8    56     8
Selective dynamics
Direct
  0.7794278483361481  0.8217900542146097  0.2059449875878201   T   T   T
  0.1850894902913467  0.7981455986579817  0.2077011754386859   T   T   T
  0.1898475663886146  0.2157790924143654  0.2237935841547056   T   T   T
  0.7797141936083065  0.2158473245174761  0.2269672865565084   T   T   T
  0.1661382484122100  0.7166736957528030  0.4631910712704155   T   T   T
  0.7561452974829450  0.7220908354222217  0.4687603705972592   T   T   T
  0.1634989163685958  0.3254461829617199  0.4820892289725762   T   T   T
  0.7571422732663464  0.3098269717412521  0.4873992750183760   T   T   T
  0.2602786832935777  0.6405292049962625  0.6995647178437849   T   T   T
  0.6548210196796944  0.6554009556033904  0.7158056758613682   T   T   T
  0.2581301856561140  0.2544755388147308  0.7217237995219534   T   T   T
  0.6639999443635460  0.2534948993597297  0.7341051810367603   T   T   T
  0.2826701869124193  0.7528371719679896  0.9526035913503677   T   T   T
  0.6876000729338614  0.7542769141478516  0.9682917480722537   T   T   T
  0.2897220144878929  0.1640897940487633  0.9704916130434356   T   T   T
  0.6837949885426156  0.1406627612265154  0.9898483721553646   T   T   T
  0.2313436431136040  0.4820313296029965  0.0872054597448653   T   T   T
  0.7312111461152426  0.4791914655486593  0.0972672018676022   T   T   T
  0.4766387080548853  0.7464266212669202  0.3353921730098861   T   T   T
  0.4816891647616401  0.2403923850826288  0.3566414144333692   T   T   T
  0.2152616912588243  0.9815137777795115  0.5919259778603418   T   T   T
  0.7138268846371005  0.9871700660593206  0.6034571177470127   T   T   T
  0.9666340606920585  0.7288729486854066  0.8334985917063236   T   T   T
  0.9633835117484040  0.2240326287256025  0.8552271912067724   T   T   T
  0.1906900600499029  0.6177112344820301  0.0047693465839060   T   T   T
  0.7739933663951746  0.5993746807895803  0.0110882317231500   T   T   T
  0.6692684764273267  0.9335655305654669  0.0126192828575427   T   T   T
  0.2307219412462587  0.2675384485020089  0.0363746354320611   T   T   T
  0.7230805603271691  0.2549203757324818  0.0536974885108705   T   T   T
  0.4820750402183265  0.5253775408909362  0.0804133351159635   T   T   T
  0.9804627156112034  0.4779768369020942  0.1044477623566706   T   T   T
  0.2477948056305266  0.7182047220218095  0.1381990561650781   T   T   T
  0.7056820958880508  0.7158768296009654  0.1442107163212114   T   T   T
  0.2680277312340493  0.3439999697747069  0.1669490082017120   T   T   T
  0.7719465121170401  0.0302875856774065  0.1879668104388443   T   T   T
  0.6854078747623475  0.3684683654731842  0.1840633114842944   T   T   T
  0.2224170691044449  0.0101364948547555  0.2065454002325211   T   T   T
  0.9779537427682499  0.7630607280222677  0.2237397027342993   T   T   T
  0.9847771976799748  0.2608354360702450  0.2396883409993507   T   T   T
  0.3004433889459790  0.7019385622368333  0.2636525778526035   T   T   T
  0.6520676683087103  0.7865586172122434  0.2688023073966832   T   T   T
  0.3007856129887259  0.2795631177813576  0.2854553240470139   T   T   T
  0.6742534344863600  0.2026156952753340  0.2952992643513923   T   T   T
  0.5095927397183360  0.4952574580062290  0.3363862641284072   T   T   T
  0.4259579703778371  0.9952099537534380  0.3568981651127032   T   T   T
  0.2606808571748118  0.6941032540988701  0.3929855670567335   T   T   T
  0.6367697898957942  0.7661823291601166  0.4070643588665348   T   T   T
  0.2755742903509315  0.3011673173587539  0.4148127865815283   T   T   T
  0.6292954545163880  0.2238592779961905  0.4327465843170515   T   T   T
  0.9600363570320027  0.7617441881697502  0.4520098822425354   T   T   T
  0.9607345426707425  0.2722632122089124  0.4674580577018688   T   T   T
  0.7229866088787347  0.5209542803103915  0.4919132218640598   T   T   T
  0.2625122360849588  0.8688680778888269  0.5052974211228047   T   T   T
  0.1742031123273549  0.5318851088766507  0.5034601527139984   T   T   T
  0.6767506945619743  0.8594264983247086  0.5220006466397393   T   T   T
  0.2429351803545359  0.2138945243825390  0.5418722855222526   T   T   T
  0.6985829601938178  0.2259345370901968  0.5564881006272699   T   T   T
  0.9660409712698552  0.9802374038193378  0.5857620168933622   T   T   T
  0.4626974195077338  0.0304882467542313  0.6106932108973027   T   T   T
  0.2252466387104235  0.7573884938692359  0.6357266098080814   T   T   T
  0.7129163023653931  0.7690285645502044  0.6525035244088642   T   T   T
  0.2714202212298815  0.4330303885171887  0.6760970754949014   T   T   T
  0.1699611025461820  0.1010809836126114  0.6792455664443438   T   T   T
  0.7597486834273042  0.1100493787157006  0.6870824359989030   T   T   T
  0.6853743029975803  0.4467820923496930  0.7004574875575997   T   T   T
  0.4472998805835431  0.6869389951069707  0.7324296202602838   T   T   T
  0.1104752049346587  0.6760465689593431  0.7546818156630195   T   T   T
  0.4569370145407632  0.2086437583979688  0.7439693291908682   T   T   T
  0.7662755904012357  0.7163512939918775  0.7776426258519962   T   T   T
  0.1416715616937552  0.2959657765536434  0.7856655363657410   T   T   T
  0.7578545748182250  0.2451917275898410  0.8032441554046272   T   T   T
  0.9972481620247464  0.9845885489397403  0.8217836058796024   T   T   T
  0.9550021150194894  0.4828330831316165  0.8669849681264097   T   T   T
  0.1971213561470577  0.7158725506730121  0.8830564072166851   T   T   T
  0.8189800144460264  0.7882757795455007  0.9079211351434680   T   T   T
  0.1847945818140886  0.2463769640716222  0.9102091559804819   T   T   T
  0.4911597197031412  0.7055835283064340  0.9451906660939571   T   T   T
  0.8375543329542836  0.1728555179459690  0.9353496054549311   T   T   T
  0.4991450113586424  0.1963513829313328  0.9574146136395498   T   T   T
  0.2543231054503465  0.9533437366118065  0.9786872798959720   T   T   T
  0.4853372715042426  0.7862745363913817  0.1047171010771208   T   T   T
  0.4541826403653033  0.4615175258790458  0.2288476326473585   T   T   T
  0.2039469168617245  0.4860691966698596  0.3383365353675956   T   T   T
  0.4922731098763720  0.9634461441947622  0.4614156829626594   T   T   T
  0.4538038427452236  0.2951080395431518  0.5872070522836950   T   T   T
  0.9692124406321696  0.9928066385260337  0.7237096266522087   T   T   T
  0.2453908458958409  0.4591879118515081  0.8546964710791727   T   T   T
  0.9806975360247918  0.5043678424724263  0.9647839496008643   T   T   T
 
  0.00000000E+00  0.00000000E+00  0.00000000E+00
  0.00000000E+00  0.00000000E+00  0.00000000E+00
  0.00000000E+00  0.00000000E+00  0.00000000E+00
  0.00000000E+00  0.00000000E+00  0.00000000E+00
  0.00000000E+00  0.00000000E+00  0.00000000E+00
  0.00000000E+00  0.00000000E+00  0.00000000E+00
  0.00000000E+00  0.00000000E+00  0.00000000E+00
  0.00000000E+00  0.00000000E+00  0.00000000E+00
  0.00000000E+00  0.00000000E+00  0.00000000E+00
  0.00000000E+00  0.00000000E+00  0.00000000E+00
  0.00000000E+00  0.00000000E+00  0.00000000E+00
  0.00000000E+00  0.00000000E+00  0.00000000E+00
  0.00000000E+00  0.00000000E+00  0.00000000E+00
  0.00000000E+00  0.00000000E+00  0.00000000E+00
  0.00000000E+00  0.00000000E+00  0.00000000E+00
  0.00000000E+00  0.00000000E+00  0.00000000E+00
  0.00000000E+00  0.00000000E+00  0.00000000E+00
  0.00000000E+00  0.00000000E+00  0.00000000E+00
  0.00000000E+00  0.00000000E+00  0.00000000E+00
  0.00000000E+00  0.00000000E+00  0.00000000E+00
  0.00000000E+00  0.00000000E+00  0.00000000E+00
  0.00000000E+00  0.00000000E+00  0.00000000E+00
  0.00000000E+00  0.00000000E+00  0.00000000E+00
  0.00000000E+00  0.00000000E+00  0.00000000E+00
  0.00000000E+00  0.00000000E+00  0.00000000E+00
  0.00000000E+00  0.00000000E+00  0.00000000E+00
  0.00000000E+00  0.00000000E+00  0.00000000E+00
  0.00000000E+00  0.00000000E+00  0.00000000E+00
  0.00000000E+00  0.00000000E+00  0.00000000E+00
  0.00000000E+00  0.00000000E+00  0.00000000E+00
  0.00000000E+00  0.00000000E+00  0.00000000E+00
  0.00000000E+00  0.00000000E+00  0.00000000E+00
  0.00000000E+00  0.00000000E+00  0.00000000E+00
  0.00000000E+00  0.00000000E+00  0.00000000E+00
  0.00000000E+00  0.00000000E+00  0.00000000E+00
  0.00000000E+00  0.00000000E+00  0.00000000E+00
  0.00000000E+00  0.00000000E+00  0.00000000E+00
  0.00000000E+00  0.00000000E+00  0.00000000E+00
  0.00000000E+00  0.00000000E+00  0.00000000E+00
  0.00000000E+00  0.00000000E+00  0.00000000E+00
  0.00000000E+00  0.00000000E+00  0.00000000E+00
  0.00000000E+00  0.00000000E+00  0.00000000E+00
  0.00000000E+00  0.00000000E+00  0.00000000E+00
  0.00000000E+00  0.00000000E+00  0.00000000E+00
  0.00000000E+00  0.00000000E+00  0.00000000E+00
  0.00000000E+00  0.00000000E+00  0.00000000E+00
  0.00000000E+00  0.00000000E+00  0.00000000E+00
  0.00000000E+00  0.00000000E+00  0.00000000E+00
  0.00000000E+00  0.00000000E+00  0.00000000E+00
  0.00000000E+00  0.00000000E+00  0.00000000E+00
  0.00000000E+00  0.00000000E+00  0.00000000E+00
  0.00000000E+00  0.00000000E+00  0.00000000E+00
  0.00000000E+00  0.00000000E+00  0.00000000E+00
  0.00000000E+00  0.00000000E+00  0.00000000E+00
  0.00000000E+00  0.00000000E+00  0.00000000E+00
  0.00000000E+00  0.00000000E+00  0.00000000E+00
  0.00000000E+00  0.00000000E+00  0.00000000E+00
  0.00000000E+00  0.00000000E+00  0.00000000E+00
  0.00000000E+00  0.00000000E+00  0.00000000E+00
  0.00000000E+00  0.00000000E+00  0.00000000E+00
  0.00000000E+00  0.00000000E+00  0.00000000E+00
  0.00000000E+00  0.00000000E+00  0.00000000E+00
  0.00000000E+00  0.00000000E+00  0.00000000E+00
  0.00000000E+00  0.00000000E+00  0.00000000E+00
  0.00000000E+00  0.00000000E+00  0.00000000E+00
  0.00000000E+00  0.00000000E+00  0.00000000E+00
  0.00000000E+00  0.00000000E+00  0.00000000E+00
  0.00000000E+00  0.00000000E+00  0.00000000E+00
  0.00000000E+00  0.00000000E+00  0.00000000E+00
  0.00000000E+00  0.00000000E+00  0.00000000E+00
  0.00000000E+00  0.00000000E+00  0.00000000E+00
  0.00000000E+00  0.00000000E+00  0.00000000E+00
  0.00000000E+00  0.00000000E+00  0.00000000E+00
  0.00000000E+00  0.00000000E+00  0.00000000E+00
  0.00000000E+00  0.00000000E+00  0.00000000E+00
  0.00000000E+00  0.00000000E+00  0.00000000E+00
  0.00000000E+00  0.00000000E+00  0.00000000E+00
  0.00000000E+00  0.00000000E+00  0.00000000E+00
  0.00000000E+00  0.00000000E+00  0.00000000E+00
  0.00000000E+00  0.00000000E+00  0.00000000E+00
  0.00000000E+00  0.00000000E+00  0.00000000E+00
  0.00000000E+00  0.00000000E+00  0.00000000E+00
  0.00000000E+00  0.00000000E+00  0.00000000E+00
  0.00000000E+00  0.00000000E+00  0.00000000E+00
  0.00000000E+00  0.00000000E+00  0.00000000E+00
  0.00000000E+00  0.00000000E+00  0.00000000E+00
  0.00000000E+00  0.00000000E+00  0.00000000E+00
  0.00000000E+00  0.00000000E+00  0.00000000E+00
