Primitive Cell                          
   1.00000000000000     
     8.2557827162445125    0.0002454388065931   -0.0002848178995134
     0.0000228070434106    9.4790079854632392   -0.0036856619129136
    -0.0003574081109992    0.0085627029025060   13.1100889560809186
   P    Ga   O    Li
    16     8    56     8
Selective dynamics
Direct
  0.8219937396184278  0.3052126891996210  0.0423928496364923   T   T   T
  0.6888347833860706  0.8051326248819919  0.0424258093503127   T   T   T
  0.1886718677573711  0.6986539606040054  0.1091338113503255   T   T   T
  0.3220341759916181  0.1986956899113324  0.1091186076845929   T   T   T
  0.7740057163332992  0.8919718769427050  0.2524198833127898   T   T   T
  0.7367362287465156  0.3917652814116508  0.2523319635710379   T   T   T
  0.2741838215267833  0.3923917764030804  0.3992534750649952   T   T   T
  0.2364316059718448  0.8920939196634521  0.3991997307713362   T   T   T
  0.8221442780403123  0.6987416392968910  0.5424791096548489   T   T   T
  0.6886304750413927  0.1986659857189821  0.5423755203252369   T   T   T
  0.3219180083502025  0.8053865775363249  0.6091630170097346   T   T   T
  0.1887739965595756  0.3053675683111479  0.6092194120885708   T   T   T
  0.7366520546910920  0.6115860549770744  0.7522662806546307   T   T   T
  0.7740879541804517  0.1117472985593579  0.7522908772110810   T   T   T
  0.2366049335333784  0.1116964710644623  0.8991690703290587   T   T   T
  0.2740954170475618  0.6118381379846412  0.8991281860258553   T   T   T
  0.0053287760313339  0.0019328843979807  0.0758569501707598   T   T   T
  0.5053221069027742  0.5019001413882123  0.0757349814487753   T   T   T
  0.0052192287707484  0.6278973188490795  0.3258044593570730   T   T   T
  0.5052987016671509  0.1279265345973286  0.3257823877151864   T   T   T
  0.5053392823751608  0.5020466428900363  0.5757377370751513   T   T   T
  0.0053063848207771  0.0020641645756498  0.5758050177799490   T   T   T
  0.0054810030208401  0.3758502033600735  0.8257590805297355   T   T   T
  0.5054311713117059  0.8758624907856074  0.8257166726522627   T   T   T
  0.8646994785352646  0.8460281272131951  0.0205046435515612   T   T   T
  0.6461098995268628  0.3461381379373663  0.0203873034820248   T   T   T
  0.6780477587819504  0.6439105834545344  0.0343896729224369   T   T   T
  0.8327584205128247  0.1439893982296141  0.0343168254759547   T   T   T
  0.1780838802045679  0.8598776041843479  0.1171898267594429   T   T   T
  0.3326950413008021  0.3598638680119777  0.1170745464118923   T   T   T
  0.3645496622481801  0.6576386331120077  0.1312251124315225   T   T   T
  0.1462003678861379  0.1577001263101607  0.1311880561183401   T   T   T
  0.8639243638268610  0.3505183208215783  0.1595977954451726   T   T   T
  0.6469153289001781  0.8504194855214280  0.1596652714396001   T   T   T
  0.4511772901878643  0.1173809913308190  0.1697980982805944   T   T   T
  0.0594139628516075  0.6173611550609053  0.1697362629475307   T   T   T
  0.9052100516246924  0.9855317917627389  0.2085144625088233   T   T   T
  0.6053958407653965  0.4852146311324645  0.2084462652820207   T   T   T
  0.6801957352859560  0.2548969299464048  0.3006016170982022   T   T   T
  0.8307384882992750  0.7552904343225464  0.3009293258346162   T   T   T
  0.3485868618367292  0.9672954819665520  0.3240446883509804   T   T   T
  0.1619302952406088  0.4672933807709754  0.3240414681995389   T   T   T
  0.6615912151347985  0.9669632306409852  0.3274521776424422   T   T   T
  0.8490289073761019  0.4669058838696643  0.3273990467361187   T   T   T
  0.3312517419912666  0.2556197805547242  0.3510865439311885   T   T   T
  0.1796326030218722  0.7552885192150924  0.3509611745366996   T   T   T
  0.4052668113629920  0.4861230226025981  0.4430846665434274   T   T   T
  0.1052153658779886  0.9856439408481279  0.4431010245623952   T   T   T
  0.5595773712166121  0.1172244524563837  0.4817222838953299   T   T   T
  0.9511267313881859  0.6172142966927296  0.4818198034632104   T   T   T
  0.1469730698969869  0.3507380198626109  0.4919337916357165   T   T   T
  0.3637335681246299  0.8505811432910093  0.4918349331313294   T   T   T
  0.6461709273910117  0.6580265406881267  0.5205292595062971   T   T   T
  0.8646197394012276  0.1579155386052236  0.5205034805369309   T   T   T
  0.8329311156929933  0.8598925131697541  0.5343581921871419   T   T   T
  0.6778405915367856  0.3598401355727034  0.5342777576382289   T   T   T
  0.3328388793456369  0.6442216773163096  0.6172803594273475   T   T   T
  0.1778050183323785  0.1441694344644873  0.6173428371636405   T   T   T
  0.1460480052682627  0.8462485475514185  0.6311698095310589   T   T   T
  0.3647639367156046  0.3460545055883415  0.6311320288841387   T   T   T
  0.6468382882446093  0.1532451349537638  0.6596367407891535   T   T   T
  0.8639691327584629  0.6532916334313370  0.6596973684186693   T   T   T
  0.0598452650099475  0.3869176400360956  0.6698287264456511   T   T   T
  0.4511133190319754  0.8867478120541747  0.6697303081707702   T   T   T
  0.6056386884664136  0.5179296064398997  0.7082930265729956   T   T   T
  0.9052335688035456  0.0179985761232970  0.7085411723148596   T   T   T
  0.8309567929879762  0.2486190578369047  0.8003648358882174   T   T   T
  0.6797339595411884  0.7484004951420999  0.8004875592241234   T   T   T
  0.1617666598139920  0.5367576929468072  0.8240899218625586   T   T   T
  0.3489430089359900  0.0366132604588572  0.8241163100693925   T   T   T
  0.8488833214691667  0.5364962683616099  0.8274030398938237   T   T   T
  0.6617545559031228  0.0366867644142914  0.8274284712133024   T   T   T
  0.1798852402539310  0.2484467321014350  0.8507785934040228   T   T   T
  0.3308146896199133  0.7486363561030984  0.8507755117978348   T   T   T
  0.1053949184901484  0.0181517446608552  0.9431334315777349   T   T   T
  0.4053284768661385  0.5182084154924880  0.9429424843766441   T   T   T
  0.9511752429772358  0.3865141527734082  0.9817241925313809   T   T   T
  0.5598480385127687  0.8866085236228685  0.9817415010859349   T   T   T
  0.3637785693823048  0.1532052334176512  0.9918819841452660   T   T   T
  0.1469459144668761  0.6532808959154792  0.9918674864389345   T   T   T
  0.3976908242710877  0.9004242409149938  0.1814099522341479   T   T   T
  0.1130943064514796  0.4005218347265256  0.1813622655751743   T   T   T
  0.6129629770773235  0.9002766731248357  0.4702715773179236   T   T   T
  0.8977395722272092  0.4003132331273775  0.4703071672693611   T   T   T
  0.1130713334173024  0.6036773649671971  0.6813673672211991   T   T   T
  0.3977042967526216  0.1036087802681038  0.6814291430374553   T   T   T
  0.8977211960650635  0.6033964808119379  0.9700949219761128   T   T   T
  0.6129750419196895  0.1034533528399990  0.9701707295516115   T   T   T
 
  0.00000000E+00  0.00000000E+00  0.00000000E+00
  0.00000000E+00  0.00000000E+00  0.00000000E+00
  0.00000000E+00  0.00000000E+00  0.00000000E+00
  0.00000000E+00  0.00000000E+00  0.00000000E+00
  0.00000000E+00  0.00000000E+00  0.00000000E+00
  0.00000000E+00  0.00000000E+00  0.00000000E+00
  0.00000000E+00  0.00000000E+00  0.00000000E+00
  0.00000000E+00  0.00000000E+00  0.00000000E+00
  0.00000000E+00  0.00000000E+00  0.00000000E+00
  0.00000000E+00  0.00000000E+00  0.00000000E+00
  0.00000000E+00  0.00000000E+00  0.00000000E+00
  0.00000000E+00  0.00000000E+00  0.00000000E+00
  0.00000000E+00  0.00000000E+00  0.00000000E+00
  0.00000000E+00  0.00000000E+00  0.00000000E+00
  0.00000000E+00  0.00000000E+00  0.00000000E+00
  0.00000000E+00  0.00000000E+00  0.00000000E+00
  0.00000000E+00  0.00000000E+00  0.00000000E+00
  0.00000000E+00  0.00000000E+00  0.00000000E+00
  0.00000000E+00  0.00000000E+00  0.00000000E+00
  0.00000000E+00  0.00000000E+00  0.00000000E+00
  0.00000000E+00  0.00000000E+00  0.00000000E+00
  0.00000000E+00  0.00000000E+00  0.00000000E+00
  0.00000000E+00  0.00000000E+00  0.00000000E+00
  0.00000000E+00  0.00000000E+00  0.00000000E+00
  0.00000000E+00  0.00000000E+00  0.00000000E+00
  0.00000000E+00  0.00000000E+00  0.00000000E+00
  0.00000000E+00  0.00000000E+00  0.00000000E+00
  0.00000000E+00  0.00000000E+00  0.00000000E+00
  0.00000000E+00  0.00000000E+00  0.00000000E+00
  0.00000000E+00  0.00000000E+00  0.00000000E+00
  0.00000000E+00  0.00000000E+00  0.00000000E+00
  0.00000000E+00  0.00000000E+00  0.00000000E+00
  0.00000000E+00  0.00000000E+00  0.00000000E+00
  0.00000000E+00  0.00000000E+00  0.00000000E+00
  0.00000000E+00  0.00000000E+00  0.00000000E+00
  0.00000000E+00  0.00000000E+00  0.00000000E+00
  0.00000000E+00  0.00000000E+00  0.00000000E+00
  0.00000000E+00  0.00000000E+00  0.00000000E+00
  0.00000000E+00  0.00000000E+00  0.00000000E+00
  0.00000000E+00  0.00000000E+00  0.00000000E+00
  0.00000000E+00  0.00000000E+00  0.00000000E+00
  0.00000000E+00  0.00000000E+00  0.00000000E+00
  0.00000000E+00  0.00000000E+00  0.00000000E+00
  0.00000000E+00  0.00000000E+00  0.00000000E+00
  0.00000000E+00  0.00000000E+00  0.00000000E+00
  0.00000000E+00  0.00000000E+00  0.00000000E+00
  0.00000000E+00  0.00000000E+00  0.00000000E+00
  0.00000000E+00  0.00000000E+00  0.00000000E+00
  0.00000000E+00  0.00000000E+00  0.00000000E+00
  0.00000000E+00  0.00000000E+00  0.00000000E+00
  0.00000000E+00  0.00000000E+00  0.00000000E+00
  0.00000000E+00  0.00000000E+00  0.00000000E+00
  0.00000000E+00  0.00000000E+00  0.00000000E+00
  0.00000000E+00  0.00000000E+00  0.00000000E+00
  0.00000000E+00  0.00000000E+00  0.00000000E+00
  0.00000000E+00  0.00000000E+00  0.00000000E+00
  0.00000000E+00  0.00000000E+00  0.00000000E+00
  0.00000000E+00  0.00000000E+00  0.00000000E+00
  0.00000000E+00  0.00000000E+00  0.00000000E+00
  0.00000000E+00  0.00000000E+00  0.00000000E+00
  0.00000000E+00  0.00000000E+00  0.00000000E+00
  0.00000000E+00  0.00000000E+00  0.00000000E+00
  0.00000000E+00  0.00000000E+00  0.00000000E+00
  0.00000000E+00  0.00000000E+00  0.00000000E+00
  0.00000000E+00  0.00000000E+00  0.00000000E+00
  0.00000000E+00  0.00000000E+00  0.00000000E+00
  0.00000000E+00  0.00000000E+00  0.00000000E+00
  0.00000000E+00  0.00000000E+00  0.00000000E+00
  0.00000000E+00  0.00000000E+00  0.00000000E+00
  0.00000000E+00  0.00000000E+00  0.00000000E+00
  0.00000000E+00  0.00000000E+00  0.00000000E+00
  0.00000000E+00  0.00000000E+00  0.00000000E+00
  0.00000000E+00  0.00000000E+00  0.00000000E+00
  0.00000000E+00  0.00000000E+00  0.00000000E+00
  0.00000000E+00  0.00000000E+00  0.00000000E+00
  0.00000000E+00  0.00000000E+00  0.00000000E+00
  0.00000000E+00  0.00000000E+00  0.00000000E+00
  0.00000000E+00  0.00000000E+00  0.00000000E+00
  0.00000000E+00  0.00000000E+00  0.00000000E+00
  0.00000000E+00  0.00000000E+00  0.00000000E+00
  0.00000000E+00  0.00000000E+00  0.00000000E+00
  0.00000000E+00  0.00000000E+00  0.00000000E+00
  0.00000000E+00  0.00000000E+00  0.00000000E+00
  0.00000000E+00  0.00000000E+00  0.00000000E+00
  0.00000000E+00  0.00000000E+00  0.00000000E+00
  0.00000000E+00  0.00000000E+00  0.00000000E+00
  0.00000000E+00  0.00000000E+00  0.00000000E+00
  0.00000000E+00  0.00000000E+00  0.00000000E+00
