Primitive Cell                          
   1.00000000000000     
     7.8446135019868191   -0.0011045292877257   -0.0151515694009385
    -0.0137439300338493    9.1285621809541038    0.0008149470896254
    -0.0080911162839356   -0.0073761489732038   16.7458461842964184
   Si   Ta   O    Li
    16     8    56     8
Selective dynamics
Direct
  0.7450773403481179  0.2515959926209561  0.0386163328683011   T   T   T
  0.1437104718446705  0.2506424497511688  0.0405726705162337   T   T   T
  0.6450138866254207  0.5280392529468472  0.1306549304784212   T   T   T
  0.2458559830867344  0.5249059433116656  0.1329654993969456   T   T   T
  0.7484027429859879  0.5274074722601725  0.3027063852414145   T   T   T
  0.1430176432292569  0.5253934952110839  0.3044468743907771   T   T   T
  0.2463914689526803  0.2424406062762614  0.3961968810424068   T   T   T
  0.6437089740547890  0.2442025537420420  0.3964179850291387   T   T   T
  0.6419201118943860  0.8600976681802877  0.5366491565440370   T   T   T
  0.2448785327697749  0.8613712366676225  0.5383526881132283   T   T   T
  0.1437194752793332  0.5850449894054890  0.6303063400497280   T   T   T
  0.7433015810605355  0.5851736058626074  0.6305234262708552   T   T   T
  0.6415526501735087  0.5897854354248793  0.8018333245800875   T   T   T
  0.2480268889191777  0.5900543002531791  0.8030186491654874   T   T   T
  0.7445304395045653  0.8732748232411538  0.8939555244450759   T   T   T
  0.1428171196631638  0.8748146167401671  0.8946462243978033   T   T   T
  0.7119763824513186  0.8968727914784296  0.0963272877178127   T   T   T
  0.1978784791741717  0.8902785829500530  0.0991692000066564   T   T   T
  0.2037767477538708  0.9013031935299338  0.3270002259610862   T   T   T
  0.7085424086848633  0.9046883102840368  0.3265684205330999   T   T   T
  0.6777479874659775  0.2137386501530116  0.5978116214196945   T   T   T
  0.1894313930869131  0.2149544078172809  0.5997034525609095   T   T   T
  0.6929161340307957  0.2156190681904420  0.8278292308293871   T   T   T
  0.1928576846555572  0.2154102360258108  0.8285579447421014   T   T   T
  0.6501876890425606  0.4061728209215687  0.0606053109039451   T   T   T
  0.2368166162391176  0.4074090482359338  0.0610295570364556   T   T   T
  0.9439657265243468  0.2659746370056126  0.0668875282938117   T   T   T
  0.9463334973660551  0.9236225512612464  0.0769094669157582   T   T   T
  0.6531831035844533  0.1188009739704512  0.0874091765810334   T   T   T
  0.7209569938652223  0.6842311827331855  0.1029500477317455   T   T   T
  0.2261723416498782  0.1260673788684770  0.1000834642658717   T   T   T
  0.1635483343914288  0.6811334968032554  0.1083576733566289   T   T   T
  0.4400979942477861  0.8869810484817293  0.1195857158876663   T   T   T
  0.4454800124685860  0.5574926748000024  0.1581666708038725   T   T   T
  0.7413544206182010  0.4654454242813486  0.2102653687869775   T   T   T
  0.7282550718860747  0.9263143493475638  0.2102748803824639   T   T   T
  0.1553532398591955  0.4557421017092906  0.2130840543825343   T   T   T
  0.1500894707160754  0.9305546398653490  0.2121321617046092   T   T   T
  0.4435856818910935  0.9225964928768207  0.3070831107179899   T   T   T
  0.2342546605908851  0.6858580823340219  0.3054703192237014   T   T   T
  0.6589407933511211  0.6876727820685318  0.3065618317794119   T   T   T
  0.1586359227935219  0.1277175152644219  0.3316865831839593   T   T   T
  0.9458197748425690  0.5366564540486181  0.3310560701749381   T   T   T
  0.7367866462617414  0.1229563765513007  0.3391768924606069   T   T   T
  0.9471302189463700  0.8825495449876399  0.3437977327307351   T   T   T
  0.6532044870580407  0.4091060930898749  0.3596605278317782   T   T   T
  0.2361802521942664  0.4110324714793947  0.3642970611561722   T   T   T
  0.4450499252368303  0.2018127098272657  0.4066303093708115   T   T   T
  0.6605935014682203  0.8873649903552590  0.4418508331711521   T   T   T
  0.2253337589696471  0.8917161309687600  0.4432378711341869   T   T   T
  0.1439352900566675  0.2201028908629681  0.4800480316727018   T   T   T
  0.7437129821210604  0.2298296499458772  0.4817045806710212   T   T   T
  0.7346867590691062  0.7041260772424494  0.5592486117038646   T   T   T
  0.1522620240101560  0.7045745756690280  0.5593059833807175   T   T   T
  0.4437508087962101  0.8474317339808124  0.5650883959909407   T   T   T
  0.4419673435777440  0.1877304583133679  0.5789807720195768   T   T   T
  0.7334252669432502  0.9920947353612419  0.5874525287166676   T   T   T
  0.1529837429961063  0.9901175453846918  0.5905977335477175   T   T   T
  0.2188637437246115  0.4267228924405089  0.6051484892324623   T   T   T
  0.6668546584939037  0.4262040650601548  0.6076522935228397   T   T   T
  0.9459892558643048  0.2226354137692965  0.6242962661672209   T   T   T
  0.9437501006565583  0.5571053714091505  0.6572068879378818   T   T   T
  0.6493332696976708  0.6516688140615869  0.7098559386820895   T   T   T
  0.2381970704491962  0.6488500917493170  0.7104180008070244   T   T   T
  0.6502800048866533  0.1788900672217224  0.7129346636108167   T   T   T
  0.2411796174927048  0.1825441918529407  0.7139096431282752   T   T   T
  0.7320950863318956  0.4288224118481665  0.8052262048475711   T   T   T
  0.9463420571149186  0.1951379658550891  0.8087952068746773   T   T   T
  0.1571141622683712  0.4292542213680193  0.8086975165204535   T   T   T
  0.4452686101829713  0.5796179389261908  0.8310927016503840   T   T   T
  0.2421750892459968  0.9926083468502469  0.8366349255910634   T   T   T
  0.6474347827228542  0.9923805054676933  0.8357277941875836   T   T   T
  0.4457901401144966  0.2333366015685172  0.8428922608182958   T   T   T
  0.7383178461818076  0.7066362001850166  0.8590801425503187   T   T   T
  0.1539529373547310  0.7079755621732104  0.8604379916838383   T   T   T
  0.9437785856042566  0.9180944420844597  0.9015868891417114   T   T   T
  0.7298616587137658  0.2262166677513449  0.9430773356961026   T   T   T
  0.1680329519846566  0.2181040810880646  0.9462611178076585   T   T   T
  0.6448739966092774  0.8875574764919634  0.9788014891171599   T   T   T
  0.2399936901624500  0.8909707459888025  0.9807839903698650   T   T   T
  0.4522956654161234  0.0989022577879268  0.1508480431739372   T   T   T
  0.0782559979596300  0.1383317667642459  0.2146717723933307   T   T   T
  0.4532290261306926  0.7345605718063624  0.2383834893510439   T   T   T
  0.9401851530871781  0.1023648604402467  0.4343183241830531   T   T   T
  0.9401413816664501  0.0044512984704284  0.6482504011310226   T   T   T
  0.9428144839183972  0.3776387598589679  0.7337484951762576   T   T   T
  0.4429185018666217  0.0379166443921690  0.7466498944743520   T   T   T
  0.4455575739277506  0.0096069597812161  0.9343035327579940   T   T   T
 
  0.00000000E+00  0.00000000E+00  0.00000000E+00
  0.00000000E+00  0.00000000E+00  0.00000000E+00
  0.00000000E+00  0.00000000E+00  0.00000000E+00
  0.00000000E+00  0.00000000E+00  0.00000000E+00
  0.00000000E+00  0.00000000E+00  0.00000000E+00
  0.00000000E+00  0.00000000E+00  0.00000000E+00
  0.00000000E+00  0.00000000E+00  0.00000000E+00
  0.00000000E+00  0.00000000E+00  0.00000000E+00
  0.00000000E+00  0.00000000E+00  0.00000000E+00
  0.00000000E+00  0.00000000E+00  0.00000000E+00
  0.00000000E+00  0.00000000E+00  0.00000000E+00
  0.00000000E+00  0.00000000E+00  0.00000000E+00
  0.00000000E+00  0.00000000E+00  0.00000000E+00
  0.00000000E+00  0.00000000E+00  0.00000000E+00
  0.00000000E+00  0.00000000E+00  0.00000000E+00
  0.00000000E+00  0.00000000E+00  0.00000000E+00
  0.00000000E+00  0.00000000E+00  0.00000000E+00
  0.00000000E+00  0.00000000E+00  0.00000000E+00
  0.00000000E+00  0.00000000E+00  0.00000000E+00
  0.00000000E+00  0.00000000E+00  0.00000000E+00
  0.00000000E+00  0.00000000E+00  0.00000000E+00
  0.00000000E+00  0.00000000E+00  0.00000000E+00
  0.00000000E+00  0.00000000E+00  0.00000000E+00
  0.00000000E+00  0.00000000E+00  0.00000000E+00
  0.00000000E+00  0.00000000E+00  0.00000000E+00
  0.00000000E+00  0.00000000E+00  0.00000000E+00
  0.00000000E+00  0.00000000E+00  0.00000000E+00
  0.00000000E+00  0.00000000E+00  0.00000000E+00
  0.00000000E+00  0.00000000E+00  0.00000000E+00
  0.00000000E+00  0.00000000E+00  0.00000000E+00
  0.00000000E+00  0.00000000E+00  0.00000000E+00
  0.00000000E+00  0.00000000E+00  0.00000000E+00
  0.00000000E+00  0.00000000E+00  0.00000000E+00
  0.00000000E+00  0.00000000E+00  0.00000000E+00
  0.00000000E+00  0.00000000E+00  0.00000000E+00
  0.00000000E+00  0.00000000E+00  0.00000000E+00
  0.00000000E+00  0.00000000E+00  0.00000000E+00
  0.00000000E+00  0.00000000E+00  0.00000000E+00
  0.00000000E+00  0.00000000E+00  0.00000000E+00
  0.00000000E+00  0.00000000E+00  0.00000000E+00
  0.00000000E+00  0.00000000E+00  0.00000000E+00
  0.00000000E+00  0.00000000E+00  0.00000000E+00
  0.00000000E+00  0.00000000E+00  0.00000000E+00
  0.00000000E+00  0.00000000E+00  0.00000000E+00
  0.00000000E+00  0.00000000E+00  0.00000000E+00
  0.00000000E+00  0.00000000E+00  0.00000000E+00
  0.00000000E+00  0.00000000E+00  0.00000000E+00
  0.00000000E+00  0.00000000E+00  0.00000000E+00
  0.00000000E+00  0.00000000E+00  0.00000000E+00
  0.00000000E+00  0.00000000E+00  0.00000000E+00
  0.00000000E+00  0.00000000E+00  0.00000000E+00
  0.00000000E+00  0.00000000E+00  0.00000000E+00
  0.00000000E+00  0.00000000E+00  0.00000000E+00
  0.00000000E+00  0.00000000E+00  0.00000000E+00
  0.00000000E+00  0.00000000E+00  0.00000000E+00
  0.00000000E+00  0.00000000E+00  0.00000000E+00
  0.00000000E+00  0.00000000E+00  0.00000000E+00
  0.00000000E+00  0.00000000E+00  0.00000000E+00
  0.00000000E+00  0.00000000E+00  0.00000000E+00
  0.00000000E+00  0.00000000E+00  0.00000000E+00
  0.00000000E+00  0.00000000E+00  0.00000000E+00
  0.00000000E+00  0.00000000E+00  0.00000000E+00
  0.00000000E+00  0.00000000E+00  0.00000000E+00
  0.00000000E+00  0.00000000E+00  0.00000000E+00
  0.00000000E+00  0.00000000E+00  0.00000000E+00
  0.00000000E+00  0.00000000E+00  0.00000000E+00
  0.00000000E+00  0.00000000E+00  0.00000000E+00
  0.00000000E+00  0.00000000E+00  0.00000000E+00
  0.00000000E+00  0.00000000E+00  0.00000000E+00
  0.00000000E+00  0.00000000E+00  0.00000000E+00
  0.00000000E+00  0.00000000E+00  0.00000000E+00
  0.00000000E+00  0.00000000E+00  0.00000000E+00
  0.00000000E+00  0.00000000E+00  0.00000000E+00
  0.00000000E+00  0.00000000E+00  0.00000000E+00
  0.00000000E+00  0.00000000E+00  0.00000000E+00
  0.00000000E+00  0.00000000E+00  0.00000000E+00
  0.00000000E+00  0.00000000E+00  0.00000000E+00
  0.00000000E+00  0.00000000E+00  0.00000000E+00
  0.00000000E+00  0.00000000E+00  0.00000000E+00
  0.00000000E+00  0.00000000E+00  0.00000000E+00
  0.00000000E+00  0.00000000E+00  0.00000000E+00
  0.00000000E+00  0.00000000E+00  0.00000000E+00
  0.00000000E+00  0.00000000E+00  0.00000000E+00
  0.00000000E+00  0.00000000E+00  0.00000000E+00
  0.00000000E+00  0.00000000E+00  0.00000000E+00
  0.00000000E+00  0.00000000E+00  0.00000000E+00
  0.00000000E+00  0.00000000E+00  0.00000000E+00
  0.00000000E+00  0.00000000E+00  0.00000000E+00
