Primitive Cell                          
   1.00000000000000     
    12.5258016840307480    0.0143594009786552   -0.0061020736609169
    -0.6087045933673200   12.5339459001697335   -0.0002791466447120
     0.0050908613208271   -0.0008879041016491    7.9160383861280232
   Si   Ta   O    Li
    16     8    56     8
Selective dynamics
Direct
  0.6982924879538501  0.8837290281932937  0.2160668491154851   T   T   T
  0.2457492975564932  0.0838165901991914  0.2165037583110134   T   T   T
  0.8580811491358702  0.2805726858112862  0.2163962394378132   T   T   T
  0.0847348190894692  0.6838539447374430  0.2166146787126237   T   T   T
  0.0915835584932552  0.2415381644923826  0.3251193201677154   T   T   T
  0.8535684450092376  0.7238271800984322  0.3268698863838182   T   T   T
  0.6800307376911263  0.1174013791808548  0.3292534701241863   T   T   T
  0.2630772946354369  0.8482680847295612  0.3295297838793587   T   T   T
  0.2630336188946885  0.8490435482479413  0.7166717456787026   T   T   T
  0.6804560909506492  0.1173541009552110  0.7164655718292110   T   T   T
  0.8537524827310037  0.7236915684892509  0.7187936644449238   T   T   T
  0.0925300945259480  0.2426501529267711  0.7203927672328163   T   T   T
  0.6982140276603630  0.8836034193218723  0.8308061815422434   T   T   T
  0.8587194846886703  0.2808323683440648  0.8289006118040660   T   T   T
  0.2460667571136170  0.0843907228780054  0.8293351462641638   T   T   T
  0.0848554602072298  0.6845442286240626  0.8281391304790873   T   T   T
  0.4664538836207441  0.2721843282673717  0.2712826106759110   T   T   T
  0.4751311767170847  0.6932437140758481  0.2758802981874524   T   T   T
  0.6907119722342898  0.4888424366105752  0.2786698123271520   T   T   T
  0.2480833349011533  0.4727077019778250  0.2833537477570047   T   T   T
  0.4755042199931978  0.6929452420498734  0.7720087030349276   T   T   T
  0.4668725511489811  0.2724890095062733  0.7728848892609790   T   T   T
  0.6917151680173603  0.4877062350984360  0.7811776455929476   T   T   T
  0.2492928666085348  0.4752569687600712  0.7875107204185028   T   T   T
  0.4648555429634840  0.2490705118711816  0.0227336994150562   T   T   T
  0.4567963605008600  0.6912373421338529  0.0228511628815085   T   T   T
  0.6740640760174230  0.9229045877191524  0.0233930283712809   T   T   T
  0.2760553149999723  0.0511034005156503  0.0228121662004597   T   T   T
  0.8930873694797228  0.3102660850884646  0.0228313611065971   T   T   T
  0.0416102031488066  0.6581521753511410  0.0223284772298697   T   T   T
  0.7157643559892009  0.4757270377903851  0.0229428892737999   T   T   T
  0.2535445410639809  0.5038031383800856  0.0244630787160816   T   T   T
  0.1774698711605183  0.7814470807262097  0.2062419598914076   T   T   T
  0.7713871658236329  0.1789774580549022  0.2141212843319238   T   T   T
  0.1283603969433997  0.1356531841228588  0.2236999528816810   T   T   T
  0.8146721523254286  0.8288668467165081  0.2255830852700242   T   T   T
  0.3785653424270592  0.3939359444182458  0.2373486286259308   T   T   T
  0.5684504728414410  0.5748743764108397  0.2424215420542950   T   T   T
  0.8039272257916465  0.6133409411952329  0.2456735881630507   T   T   T
  0.1499158745877764  0.3493699794144689  0.2496927831708149   T   T   T
  0.3800278917101068  0.8246087343826005  0.2558782461550990   T   T   T
  0.5607374440698152  0.1376376547417379  0.2600945377740942   T   T   T
  0.6082271596340334  0.7978954698340743  0.2848454048817217   T   T   T
  0.5954581653256170  0.3607461283474933  0.2820266509983824   T   T   T
  0.3337969413963506  0.1680311880492198  0.2963193534742317   T   T   T
  0.9629847554316342  0.2448201451855425  0.3204445872551744   T   T   T
  0.9834962840106272  0.7254192077088391  0.3237081386225640   T   T   T
  0.2397646067592163  0.9738611532815327  0.3277608268355650   T   T   T
  0.1334250739749336  0.5808322985128171  0.3042348214228454   T   T   T
  0.3480749553338782  0.6059034016708935  0.3089128639446415   T   T   T
  0.7014616975221841  0.9904911805435717  0.3335929610115684   T   T   T
  0.8084009900881668  0.3813130938977380  0.3116181838060257   T   T   T
  0.4936026703454104  0.7013832122626695  0.5232428059166381   T   T   T
  0.4539210262326918  0.2721034392168065  0.5228113442307531   T   T   T
  0.6958694680513204  0.1666169761299585  0.5228369485868072   T   T   T
  0.2448426452669636  0.8007443529667739  0.5233475624933703   T   T   T
  0.1332720063720672  0.2275382662800212  0.5227063058021599   T   T   T
  0.8094694455260054  0.7359187209634541  0.5229180131165165   T   T   T
  0.6932210023028489  0.5021932390534687  0.5226532821782399   T   T   T
  0.2510363427762812  0.4595434527858515  0.5234900355789307   T   T   T
  0.7015465323599628  0.9903369672022819  0.7130555962221976   T   T   T
  0.8090800147409709  0.3816511824715718  0.7338430474736057   T   T   T
  0.3484675375528639  0.6049579311560151  0.7369362266486021   T   T   T
  0.2401045732030767  0.9746507967911597  0.7175559338124060   T   T   T
  0.1349727156022098  0.5822318478024471  0.7402637961605549   T   T   T
  0.9837157182086713  0.7260183500653525  0.7210835854088415   T   T   T
  0.9639623351276185  0.2459806299647624  0.7252484025132304   T   T   T
  0.3342737203302093  0.1683509948102255  0.7495385102814822   T   T   T
  0.5963665889047007  0.3605779433701315  0.7622726916092759   T   T   T
  0.6078221456614443  0.7980606034395024  0.7620314336669836   T   T   T
  0.5613160542893496  0.1379664351965459  0.7860386667667356   T   T   T
  0.3796596987814027  0.8242392567410732  0.7901678319281942   T   T   T
  0.1511342701384137  0.3504894798715981  0.7955164457988175   T   T   T
  0.8051483420990522  0.6130057697664952  0.8000310872935685   T   T   T
  0.5699728621039952  0.5757047793845231  0.8019166276096286   T   T   T
  0.3798094160320602  0.3941439913407265  0.8098291747160076   T   T   T
  0.8143559349890026  0.8284039445668085  0.8205975615169336   T   T   T
  0.1290926219975930  0.1369381151045488  0.8225411821310473   T   T   T
  0.7723414186750333  0.1789475959451678  0.8303366039076963   T   T   T
  0.1768312987113987  0.7828938144748818  0.8400301803251793   T   T   T
  0.5279076256144677  0.1080911029952460  0.0228618750826399   T   T   T
  0.3251673070910854  0.7737760100985511  0.0230780535314778   T   T   T
  0.8543822250450077  0.5680955780839341  0.0239739181764307   T   T   T
  0.4334329927425813  0.4912452447244036  0.0332970098714540   T   T   T
  0.6402119304584986  0.7628388642493178  0.5235155532742937   T   T   T
  0.3004636646231518  0.2159316672932334  0.5229581332154680   T   T   T
  0.7304607822877216  0.3324652804761214  0.5248622432243906   T   T   T
  0.2519447166307316  0.6324324272022679  0.5288379351006469   T   T   T
 
  0.00000000E+00  0.00000000E+00  0.00000000E+00
  0.00000000E+00  0.00000000E+00  0.00000000E+00
  0.00000000E+00  0.00000000E+00  0.00000000E+00
  0.00000000E+00  0.00000000E+00  0.00000000E+00
  0.00000000E+00  0.00000000E+00  0.00000000E+00
  0.00000000E+00  0.00000000E+00  0.00000000E+00
  0.00000000E+00  0.00000000E+00  0.00000000E+00
  0.00000000E+00  0.00000000E+00  0.00000000E+00
  0.00000000E+00  0.00000000E+00  0.00000000E+00
  0.00000000E+00  0.00000000E+00  0.00000000E+00
  0.00000000E+00  0.00000000E+00  0.00000000E+00
  0.00000000E+00  0.00000000E+00  0.00000000E+00
  0.00000000E+00  0.00000000E+00  0.00000000E+00
  0.00000000E+00  0.00000000E+00  0.00000000E+00
  0.00000000E+00  0.00000000E+00  0.00000000E+00
  0.00000000E+00  0.00000000E+00  0.00000000E+00
  0.00000000E+00  0.00000000E+00  0.00000000E+00
  0.00000000E+00  0.00000000E+00  0.00000000E+00
  0.00000000E+00  0.00000000E+00  0.00000000E+00
  0.00000000E+00  0.00000000E+00  0.00000000E+00
  0.00000000E+00  0.00000000E+00  0.00000000E+00
  0.00000000E+00  0.00000000E+00  0.00000000E+00
  0.00000000E+00  0.00000000E+00  0.00000000E+00
  0.00000000E+00  0.00000000E+00  0.00000000E+00
  0.00000000E+00  0.00000000E+00  0.00000000E+00
  0.00000000E+00  0.00000000E+00  0.00000000E+00
  0.00000000E+00  0.00000000E+00  0.00000000E+00
  0.00000000E+00  0.00000000E+00  0.00000000E+00
  0.00000000E+00  0.00000000E+00  0.00000000E+00
  0.00000000E+00  0.00000000E+00  0.00000000E+00
  0.00000000E+00  0.00000000E+00  0.00000000E+00
  0.00000000E+00  0.00000000E+00  0.00000000E+00
  0.00000000E+00  0.00000000E+00  0.00000000E+00
  0.00000000E+00  0.00000000E+00  0.00000000E+00
  0.00000000E+00  0.00000000E+00  0.00000000E+00
  0.00000000E+00  0.00000000E+00  0.00000000E+00
  0.00000000E+00  0.00000000E+00  0.00000000E+00
  0.00000000E+00  0.00000000E+00  0.00000000E+00
  0.00000000E+00  0.00000000E+00  0.00000000E+00
  0.00000000E+00  0.00000000E+00  0.00000000E+00
  0.00000000E+00  0.00000000E+00  0.00000000E+00
  0.00000000E+00  0.00000000E+00  0.00000000E+00
  0.00000000E+00  0.00000000E+00  0.00000000E+00
  0.00000000E+00  0.00000000E+00  0.00000000E+00
  0.00000000E+00  0.00000000E+00  0.00000000E+00
  0.00000000E+00  0.00000000E+00  0.00000000E+00
  0.00000000E+00  0.00000000E+00  0.00000000E+00
  0.00000000E+00  0.00000000E+00  0.00000000E+00
  0.00000000E+00  0.00000000E+00  0.00000000E+00
  0.00000000E+00  0.00000000E+00  0.00000000E+00
  0.00000000E+00  0.00000000E+00  0.00000000E+00
  0.00000000E+00  0.00000000E+00  0.00000000E+00
  0.00000000E+00  0.00000000E+00  0.00000000E+00
  0.00000000E+00  0.00000000E+00  0.00000000E+00
  0.00000000E+00  0.00000000E+00  0.00000000E+00
  0.00000000E+00  0.00000000E+00  0.00000000E+00
  0.00000000E+00  0.00000000E+00  0.00000000E+00
  0.00000000E+00  0.00000000E+00  0.00000000E+00
  0.00000000E+00  0.00000000E+00  0.00000000E+00
  0.00000000E+00  0.00000000E+00  0.00000000E+00
  0.00000000E+00  0.00000000E+00  0.00000000E+00
  0.00000000E+00  0.00000000E+00  0.00000000E+00
  0.00000000E+00  0.00000000E+00  0.00000000E+00
  0.00000000E+00  0.00000000E+00  0.00000000E+00
  0.00000000E+00  0.00000000E+00  0.00000000E+00
  0.00000000E+00  0.00000000E+00  0.00000000E+00
  0.00000000E+00  0.00000000E+00  0.00000000E+00
  0.00000000E+00  0.00000000E+00  0.00000000E+00
  0.00000000E+00  0.00000000E+00  0.00000000E+00
  0.00000000E+00  0.00000000E+00  0.00000000E+00
  0.00000000E+00  0.00000000E+00  0.00000000E+00
  0.00000000E+00  0.00000000E+00  0.00000000E+00
  0.00000000E+00  0.00000000E+00  0.00000000E+00
  0.00000000E+00  0.00000000E+00  0.00000000E+00
  0.00000000E+00  0.00000000E+00  0.00000000E+00
  0.00000000E+00  0.00000000E+00  0.00000000E+00
  0.00000000E+00  0.00000000E+00  0.00000000E+00
  0.00000000E+00  0.00000000E+00  0.00000000E+00
  0.00000000E+00  0.00000000E+00  0.00000000E+00
  0.00000000E+00  0.00000000E+00  0.00000000E+00
  0.00000000E+00  0.00000000E+00  0.00000000E+00
  0.00000000E+00  0.00000000E+00  0.00000000E+00
  0.00000000E+00  0.00000000E+00  0.00000000E+00
  0.00000000E+00  0.00000000E+00  0.00000000E+00
  0.00000000E+00  0.00000000E+00  0.00000000E+00
  0.00000000E+00  0.00000000E+00  0.00000000E+00
  0.00000000E+00  0.00000000E+00  0.00000000E+00
  0.00000000E+00  0.00000000E+00  0.00000000E+00
