Primitive Cell                          
   1.00000000000000     
    13.9048468714343372   -0.0002095922396518   -0.0003934581588146
    -0.0002062283370847   13.9058979760038923    0.0002047823701631
    -0.0001709941592152    0.0000922257182874    6.3424403488760328
   Ta   Si   O    Li
    16     8    64    16
Selective dynamics
Direct
  0.7462263972508865  0.0358014057043192  0.1346852015308713   T   T   T
  0.0086904625518827  0.7998817035696391  0.1346365823585600   T   T   T
  0.2462203909964984  0.5358052838946961  0.1347070656544815   T   T   T
  0.5086979741357851  0.2998788840895372  0.1346582918725545   T   T   T
  0.7594746135487327  0.7866011043530889  0.3981594785746694   T   T   T
  0.9954356280346630  0.0490982081137759  0.3981514813636977   T   T   T
  0.2594925635132270  0.2866031695895472  0.3981887034680582   T   T   T
  0.4954144270642118  0.5490996338193455  0.3981584677390657   T   T   T
  0.5086737317216077  0.7998858831939657  0.6346431372513806   T   T   T
  0.7462182430982836  0.5358044240938398  0.6347064078048774   T   T   T
  0.2462307656233236  0.0357928107036329  0.6347119674607242   T   T   T
  0.0087043816044172  0.2998848491092545  0.6346606564373971   T   T   T
  0.7594869350706617  0.2865983593684547  0.8981686739332204   T   T   T
  0.2594743674072504  0.7865996318189801  0.8981737593334316   T   T   T
  0.9954273597524264  0.5491077008616330  0.8981596614213672   T   T   T
  0.4954260267665447  0.0490976072352822  0.8981714227127924   T   T   T
  0.6274422879256605  0.6678275140745669  0.0164114904801096   T   T   T
  0.1274982032204903  0.1678209396861092  0.0164272743131093   T   T   T
  0.3774279587602223  0.9178654807282172  0.2663923630146954   T   T   T
  0.8774408761634405  0.4178683904093745  0.2664051458851304   T   T   T
  0.1274723674965657  0.6678305619516109  0.5164154088795172   T   T   T
  0.6274746748545184  0.1678157814748076  0.5164240744869772   T   T   T
  0.8774313413414134  0.9178634451220731  0.7663898310966957   T   T   T
  0.3774340429783791  0.4178701097799831  0.7664205265595641   T   T   T
  0.7651250405344499  0.1815812192752588  0.0945702837593814   T   T   T
  0.2651384664119547  0.6815758488608878  0.0945794087835594   T   T   T
  0.4897141524783493  0.1541447917716496  0.0945268221009101   T   T   T
  0.9897404844774798  0.6541341826424869  0.0945232297636380   T   T   T
  0.2828085530538615  0.8865181694282214  0.1255970829632673   T   T   T
  0.9720708873326487  0.4492179441193187  0.1256350371479655   T   T   T
  0.4720750846935644  0.9492121994962446  0.1256268450669182   T   T   T
  0.7828179361032426  0.3865098255609851  0.1256114315585037   T   T   T
  0.5316486045270707  0.6321266380140855  0.1474511299010217   T   T   T
  0.7232166188128843  0.7035334896127736  0.1475372813944986   T   T   T
  0.0316812549841785  0.1321298132454700  0.1474752229796934   T   T   T
  0.2232567680042621  0.2035299976139768  0.1475354854796578   T   T   T
  0.0193079951350512  0.9321168504278319  0.2049544936136201   T   T   T
  0.7356240211636731  0.9035600297032644  0.2048165480947688   T   T   T
  0.2356079908916016  0.4035561532735841  0.2048355161489752   T   T   T
  0.5193192981401396  0.4321135110741281  0.2049635200796729   T   T   T
  0.8917344762628545  0.7759637648682016  0.3279907909417616   T   T   T
  0.8631701813941461  0.0597251050569909  0.3279495372384673   T   T   T
  0.3631584293360959  0.5597001771716918  0.3279927389936645   T   T   T
  0.3917562156746257  0.2759957911020336  0.3280348619513447   T   T   T
  0.6631685674918089  0.0720341845329600  0.3853858998709399   T   T   T
  0.1631582014044284  0.5720416494061098  0.3853842465955211   T   T   T
  0.5917852835479707  0.2635806227573525  0.3852873369589460   T   T   T
  0.0917711644848254  0.7635896004574363  0.3852888451274978   T   T   T
  0.3460882244176133  0.0125010957796832  0.4071459423371522   T   T   T
  0.4087711038127679  0.8232427436655954  0.4071885502085522   T   T   T
  0.8460864681736311  0.5125030518075278  0.4071623288984867   T   T   T
  0.9087884787525269  0.3232464223431677  0.4072135905547256   T   T   T
  0.6137107978076344  0.8055924653210838  0.4382433988326042   T   T   T
  0.1411719536913907  0.0301826083175953  0.4383055425737865   T   T   T
  0.1137137498693974  0.3055591017275745  0.4382605161862756   T   T   T
  0.6411757817130663  0.5301918620595885  0.4383093855522091   T   T   T
  0.4897224120080352  0.6541404177874171  0.5944928588320977   T   T   T
  0.2651545527250931  0.1815762739529703  0.5945627034427758   T   T   T
  0.7651145486694588  0.6815819092070754  0.5945836570279468   T   T   T
  0.9897408120855147  0.1541364646493193  0.5945320546977442   T   T   T
  0.9720711367686476  0.9492137662879472  0.6256034356869407   T   T   T
  0.7828080976362770  0.8865131294047259  0.6255910770873143   T   T   T
  0.4720774301130533  0.4492153046058647  0.6256352592273942   T   T   T
  0.2828131097658328  0.3865158455811084  0.6256258835177206   T   T   T
  0.2232310710531635  0.7035263999695474  0.6475253425905265   T   T   T
  0.7232514835158810  0.2035332591925609  0.6475245149982385   T   T   T
  0.0316593790919200  0.6321264456578959  0.6474605539232101   T   T   T
  0.5316791427183034  0.1321316076730383  0.6474761397068249   T   T   T
  0.2356085217186461  0.9035585875125136  0.7048218500893810   T   T   T
  0.5192958162714518  0.9321126138699398  0.7049580840745335   T   T   T
  0.7356147450461776  0.4035634741609329  0.7048358823042733   T   T   T
  0.0193131710424410  0.4321081903533823  0.7049670313807397   T   T   T
  0.3631696537484999  0.0597047654140255  0.8279630875372135   T   T   T
  0.3917372216989250  0.7759772876736264  0.8279927279921253   T   T   T
  0.8917585558187042  0.2759693664911893  0.8280231048698568   T   T   T
  0.8631509488819518  0.5597253547257921  0.8279746677080695   T   T   T
  0.5917673143203928  0.7635786982808810  0.8852845780094540   T   T   T
  0.1631726196132135  0.0720486110870340  0.8853989362599108   T   T   T
  0.6631565444670215  0.5720338995598482  0.8853839589874113   T   T   T
  0.0917901239953807  0.2635921377973673  0.8852924543178418   T   T   T
  0.8460929428270063  0.0125046143653194  0.9071365057755614   T   T   T
  0.9087710658537347  0.8232469547183356  0.9071842013299474   T   T   T
  0.3460896117449650  0.5124998855478538  0.9071593515143874   T   T   T
  0.4087866261635043  0.3232459652030428  0.9072129061939833   T   T   T
  0.1137006444124822  0.8055621632219783  0.9382418505889873   T   T   T
  0.1411728778380379  0.5301885082245761  0.9383051196260155   T   T   T
  0.6411761038983457  0.0301762805849535  0.9383147286859383   T   T   T
  0.6137177690198357  0.3055648564129427  0.9382496043489752   T   T   T
  0.6625416443863656  0.4680382524365072  0.1312556329500154   T   T   T
  0.0923312311977327  0.3676327339836121  0.1310507682269275   T   T   T
  0.1625387253333130  0.9680449999716743  0.1312720894329686   T   T   T
  0.5923346652573329  0.8676352699363790  0.1310136242479487   T   T   T
  0.9276318636896335  0.6328432565830013  0.4014315114632652   T   T   T
  0.3272625113321581  0.7028904914107130  0.4016234484478289   T   T   T
  0.8272618077391627  0.2029075286141619  0.4015787902467025   T   T   T
  0.4275992694198933  0.1328771183899846  0.4015739156009630   T   T   T
  0.6625006405631808  0.9680086650314053  0.6311532601308443   T   T   T
  0.0923264458698441  0.8676270230750660  0.6310286075038576   T   T   T
  0.5923258459007741  0.3676204806506220  0.6310704298262024   T   T   T
  0.1625480438990010  0.4680545442795108  0.6313013875265270   T   T   T
  0.8272236976009992  0.7029180421089833  0.9015746739462713   T   T   T
  0.3272898214858060  0.2028843351264271  0.9016509475626862   T   T   T
  0.9276496682284261  0.1328384396132805  0.9014536889095055   T   T   T
  0.4275977679671215  0.6328655502662315  0.9014787887022706   T   T   T
 
  0.00000000E+00  0.00000000E+00  0.00000000E+00
  0.00000000E+00  0.00000000E+00  0.00000000E+00
  0.00000000E+00  0.00000000E+00  0.00000000E+00
  0.00000000E+00  0.00000000E+00  0.00000000E+00
  0.00000000E+00  0.00000000E+00  0.00000000E+00
  0.00000000E+00  0.00000000E+00  0.00000000E+00
  0.00000000E+00  0.00000000E+00  0.00000000E+00
  0.00000000E+00  0.00000000E+00  0.00000000E+00
  0.00000000E+00  0.00000000E+00  0.00000000E+00
  0.00000000E+00  0.00000000E+00  0.00000000E+00
  0.00000000E+00  0.00000000E+00  0.00000000E+00
  0.00000000E+00  0.00000000E+00  0.00000000E+00
  0.00000000E+00  0.00000000E+00  0.00000000E+00
  0.00000000E+00  0.00000000E+00  0.00000000E+00
  0.00000000E+00  0.00000000E+00  0.00000000E+00
  0.00000000E+00  0.00000000E+00  0.00000000E+00
  0.00000000E+00  0.00000000E+00  0.00000000E+00
  0.00000000E+00  0.00000000E+00  0.00000000E+00
  0.00000000E+00  0.00000000E+00  0.00000000E+00
  0.00000000E+00  0.00000000E+00  0.00000000E+00
  0.00000000E+00  0.00000000E+00  0.00000000E+00
  0.00000000E+00  0.00000000E+00  0.00000000E+00
  0.00000000E+00  0.00000000E+00  0.00000000E+00
  0.00000000E+00  0.00000000E+00  0.00000000E+00
  0.00000000E+00  0.00000000E+00  0.00000000E+00
  0.00000000E+00  0.00000000E+00  0.00000000E+00
  0.00000000E+00  0.00000000E+00  0.00000000E+00
  0.00000000E+00  0.00000000E+00  0.00000000E+00
  0.00000000E+00  0.00000000E+00  0.00000000E+00
  0.00000000E+00  0.00000000E+00  0.00000000E+00
  0.00000000E+00  0.00000000E+00  0.00000000E+00
  0.00000000E+00  0.00000000E+00  0.00000000E+00
  0.00000000E+00  0.00000000E+00  0.00000000E+00
  0.00000000E+00  0.00000000E+00  0.00000000E+00
  0.00000000E+00  0.00000000E+00  0.00000000E+00
  0.00000000E+00  0.00000000E+00  0.00000000E+00
  0.00000000E+00  0.00000000E+00  0.00000000E+00
  0.00000000E+00  0.00000000E+00  0.00000000E+00
  0.00000000E+00  0.00000000E+00  0.00000000E+00
  0.00000000E+00  0.00000000E+00  0.00000000E+00
  0.00000000E+00  0.00000000E+00  0.00000000E+00
  0.00000000E+00  0.00000000E+00  0.00000000E+00
  0.00000000E+00  0.00000000E+00  0.00000000E+00
  0.00000000E+00  0.00000000E+00  0.00000000E+00
  0.00000000E+00  0.00000000E+00  0.00000000E+00
  0.00000000E+00  0.00000000E+00  0.00000000E+00
  0.00000000E+00  0.00000000E+00  0.00000000E+00
  0.00000000E+00  0.00000000E+00  0.00000000E+00
  0.00000000E+00  0.00000000E+00  0.00000000E+00
  0.00000000E+00  0.00000000E+00  0.00000000E+00
  0.00000000E+00  0.00000000E+00  0.00000000E+00
  0.00000000E+00  0.00000000E+00  0.00000000E+00
  0.00000000E+00  0.00000000E+00  0.00000000E+00
  0.00000000E+00  0.00000000E+00  0.00000000E+00
  0.00000000E+00  0.00000000E+00  0.00000000E+00
  0.00000000E+00  0.00000000E+00  0.00000000E+00
  0.00000000E+00  0.00000000E+00  0.00000000E+00
  0.00000000E+00  0.00000000E+00  0.00000000E+00
  0.00000000E+00  0.00000000E+00  0.00000000E+00
  0.00000000E+00  0.00000000E+00  0.00000000E+00
  0.00000000E+00  0.00000000E+00  0.00000000E+00
  0.00000000E+00  0.00000000E+00  0.00000000E+00
  0.00000000E+00  0.00000000E+00  0.00000000E+00
  0.00000000E+00  0.00000000E+00  0.00000000E+00
  0.00000000E+00  0.00000000E+00  0.00000000E+00
  0.00000000E+00  0.00000000E+00  0.00000000E+00
  0.00000000E+00  0.00000000E+00  0.00000000E+00
  0.00000000E+00  0.00000000E+00  0.00000000E+00
  0.00000000E+00  0.00000000E+00  0.00000000E+00
  0.00000000E+00  0.00000000E+00  0.00000000E+00
  0.00000000E+00  0.00000000E+00  0.00000000E+00
  0.00000000E+00  0.00000000E+00  0.00000000E+00
  0.00000000E+00  0.00000000E+00  0.00000000E+00
  0.00000000E+00  0.00000000E+00  0.00000000E+00
  0.00000000E+00  0.00000000E+00  0.00000000E+00
  0.00000000E+00  0.00000000E+00  0.00000000E+00
  0.00000000E+00  0.00000000E+00  0.00000000E+00
  0.00000000E+00  0.00000000E+00  0.00000000E+00
  0.00000000E+00  0.00000000E+00  0.00000000E+00
  0.00000000E+00  0.00000000E+00  0.00000000E+00
  0.00000000E+00  0.00000000E+00  0.00000000E+00
  0.00000000E+00  0.00000000E+00  0.00000000E+00
  0.00000000E+00  0.00000000E+00  0.00000000E+00
  0.00000000E+00  0.00000000E+00  0.00000000E+00
  0.00000000E+00  0.00000000E+00  0.00000000E+00
  0.00000000E+00  0.00000000E+00  0.00000000E+00
  0.00000000E+00  0.00000000E+00  0.00000000E+00
  0.00000000E+00  0.00000000E+00  0.00000000E+00
  0.00000000E+00  0.00000000E+00  0.00000000E+00
  0.00000000E+00  0.00000000E+00  0.00000000E+00
  0.00000000E+00  0.00000000E+00  0.00000000E+00
  0.00000000E+00  0.00000000E+00  0.00000000E+00
  0.00000000E+00  0.00000000E+00  0.00000000E+00
  0.00000000E+00  0.00000000E+00  0.00000000E+00
  0.00000000E+00  0.00000000E+00  0.00000000E+00
  0.00000000E+00  0.00000000E+00  0.00000000E+00
  0.00000000E+00  0.00000000E+00  0.00000000E+00
  0.00000000E+00  0.00000000E+00  0.00000000E+00
  0.00000000E+00  0.00000000E+00  0.00000000E+00
  0.00000000E+00  0.00000000E+00  0.00000000E+00
  0.00000000E+00  0.00000000E+00  0.00000000E+00
  0.00000000E+00  0.00000000E+00  0.00000000E+00
  0.00000000E+00  0.00000000E+00  0.00000000E+00
  0.00000000E+00  0.00000000E+00  0.00000000E+00
