Primitive Cell                          
   1.00000000000000     
     6.1119685880631840   -0.0014498831943054   -0.0042756180123628
    -1.7003624214760291    5.9438194405636731    0.0062380354216568
    -0.0578114812243303    0.0730031285928687   15.0788342197287033
   P    Al   O    Li
     8     4    28     4
Selective dynamics
Direct
  0.4805039861553126  0.7541868535440486  0.1227183166753250   T   T   T
  0.1414751222173223  0.3725675290251402  0.1869056272032807   T   T   T
  0.6383274349237240  0.3877252184305533  0.3581678802877946   T   T   T
  0.9734078099779211  0.7579653740178145  0.4309393788303311   T   T   T
  0.9831091584941589  0.2575498823728068  0.6225662896539816   T   T   T
  0.3169906128472775  0.6246326314311261  0.6954721573889984   T   T   T
  0.8089393958587152  0.6425966421876339  0.8647049322804676   T   T   T
  0.4684344803467866  0.2593179364966431  0.9291160221789099   T   T   T
  0.6040325691879787  0.2979073729675434  0.1367259788205786   T   T   T
  0.1015064042264910  0.3031939639964918  0.4101425035162123   T   T   T
  0.8489102147364846  0.7042920947889542  0.6417307526105489   T   T   T
  0.3484646165988963  0.7229858463422545  0.9166411140097068   T   T   T
  0.6129790265604740  0.2499664954064187  0.0114742404539143   T   T   T
  0.3523025040779899  0.7694530779846005  0.0374187842373317   T   T   T
  0.6447197076051907  0.6088465293124230  0.1206605391476074   T   T   T
  0.9285069237804109  0.3583251750633707  0.1303764142149149   T   T   T
  0.2866845971165333  0.2460428784790381  0.1384955458250801   T   T   T
  0.5943468284322009  0.9853632455696371  0.1627353468374224   T   T   T
  0.2841371332703062  0.6340025093032011  0.1951953651858958   T   T   T
  0.6014268796048583  0.3109169050541638  0.2632909643730201   T   T   T
  0.0750436949814883  0.2947107799401252  0.2816812788969969   T   T   T
  0.7843215216901029  0.6521461967661892  0.3538050344458838   T   T   T
  0.0714320170972869  0.9976874201139694  0.4006434628557969   T   T   T
  0.7801417747640116  0.2556200191875604  0.4078628690555988   T   T   T
  0.4231381937579357  0.3831733279745748  0.4095047427183687   T   T   T
  0.1504391656674002  0.6245572807717537  0.4266568457531434   T   T   T
  0.8317265607018527  0.7277794469128054  0.5157824762467129   T   T   T
  0.1171184473343487  0.2927216613365644  0.5358476620694788   T   T   T
  0.8109167884929036  0.3923116322305518  0.6325822035724187   T   T   T
  0.5310130224283895  0.6438829338685608  0.6409227981954047   T   T   T
  0.1730776664523432  0.7546858328196535  0.6452329820003868   T   T   T
  0.8919170011407900  0.0159899712325711  0.6519318574224755   T   T   T
  0.1806548198586171  0.3590763181145959  0.6988087876519700   T   T   T
  0.8762090240376281  0.7225479539317590  0.7705248423085536   T   T   T
  0.3534286744423625  0.7007322428832623  0.7904389688860363   T   T   T
  0.6524175678444948  0.3828058780076447  0.8543074623508105   T   T   T
  0.3494449588588608  0.0293041687742104  0.8895381519549090   T   T   T
  0.6669849293827497  0.7712620408795274  0.9132170932145911   T   T   T
  0.0188690786097538  0.6335992644041966  0.9190645141561120   T   T   T
  0.2987091040732679  0.4001634697144070  0.9376271841507489   T   T   T
  0.9825627523042542  0.3667415724058287  0.0005965626120030   T   T   T
  0.7705837262971258  0.0429031895050471  0.2781495428390883   T   T   T
  0.4372995923626490  0.5951009952989708  0.5117550836243794   T   T   T
  0.1806448550443776  0.9765487629667859  0.7657748224688206   T   T   T
 
  0.00000000E+00  0.00000000E+00  0.00000000E+00
  0.00000000E+00  0.00000000E+00  0.00000000E+00
  0.00000000E+00  0.00000000E+00  0.00000000E+00
  0.00000000E+00  0.00000000E+00  0.00000000E+00
  0.00000000E+00  0.00000000E+00  0.00000000E+00
  0.00000000E+00  0.00000000E+00  0.00000000E+00
  0.00000000E+00  0.00000000E+00  0.00000000E+00
  0.00000000E+00  0.00000000E+00  0.00000000E+00
  0.00000000E+00  0.00000000E+00  0.00000000E+00
  0.00000000E+00  0.00000000E+00  0.00000000E+00
  0.00000000E+00  0.00000000E+00  0.00000000E+00
  0.00000000E+00  0.00000000E+00  0.00000000E+00
  0.00000000E+00  0.00000000E+00  0.00000000E+00
  0.00000000E+00  0.00000000E+00  0.00000000E+00
  0.00000000E+00  0.00000000E+00  0.00000000E+00
  0.00000000E+00  0.00000000E+00  0.00000000E+00
  0.00000000E+00  0.00000000E+00  0.00000000E+00
  0.00000000E+00  0.00000000E+00  0.00000000E+00
  0.00000000E+00  0.00000000E+00  0.00000000E+00
  0.00000000E+00  0.00000000E+00  0.00000000E+00
  0.00000000E+00  0.00000000E+00  0.00000000E+00
  0.00000000E+00  0.00000000E+00  0.00000000E+00
  0.00000000E+00  0.00000000E+00  0.00000000E+00
  0.00000000E+00  0.00000000E+00  0.00000000E+00
  0.00000000E+00  0.00000000E+00  0.00000000E+00
  0.00000000E+00  0.00000000E+00  0.00000000E+00
  0.00000000E+00  0.00000000E+00  0.00000000E+00
  0.00000000E+00  0.00000000E+00  0.00000000E+00
  0.00000000E+00  0.00000000E+00  0.00000000E+00
  0.00000000E+00  0.00000000E+00  0.00000000E+00
  0.00000000E+00  0.00000000E+00  0.00000000E+00
  0.00000000E+00  0.00000000E+00  0.00000000E+00
  0.00000000E+00  0.00000000E+00  0.00000000E+00
  0.00000000E+00  0.00000000E+00  0.00000000E+00
  0.00000000E+00  0.00000000E+00  0.00000000E+00
  0.00000000E+00  0.00000000E+00  0.00000000E+00
  0.00000000E+00  0.00000000E+00  0.00000000E+00
  0.00000000E+00  0.00000000E+00  0.00000000E+00
  0.00000000E+00  0.00000000E+00  0.00000000E+00
  0.00000000E+00  0.00000000E+00  0.00000000E+00
  0.00000000E+00  0.00000000E+00  0.00000000E+00
  0.00000000E+00  0.00000000E+00  0.00000000E+00
  0.00000000E+00  0.00000000E+00  0.00000000E+00
  0.00000000E+00  0.00000000E+00  0.00000000E+00
