Primitive Cell                          
   1.00000000000000     
     9.2737705969722146    0.0045889262057282    0.0164352112861808
    -0.0016647105453555    5.2824487827378270   -0.0704316964008551
    -0.0805232030527830   -0.1415074167485290   24.9157098612905870
   Si   Nb   O    Li
    16     8    56     8
Selective dynamics
Direct
  0.6313426701957852  0.1499154891600512  0.0710191586960676   T   T   T
  0.1583698524949568  0.6477692545650058  0.0731402699673964   T   T   T
  0.9748404881986019  0.1155208617842334  0.1982344062972672   T   T   T
  0.4998381982369793  0.6287846685838900  0.2046655969158095   T   T   T
  0.9643644044481192  0.0972339180312503  0.3196029067147350   T   T   T
  0.4981212249099514  0.5974402402266037  0.3259159509220453   T   T   T
  0.3040025993341473  0.1486118255327185  0.4508438840656694   T   T   T
  0.8359499269115176  0.6500859875836369  0.4536167448541448   T   T   T
  0.8317536111262740  0.4699045262185990  0.5715977019174616   T   T   T
  0.3011741336784581  0.9708741781596686  0.5730090797125413   T   T   T
  0.4954569733029999  0.5232390183778008  0.6985779433506707   T   T   T
  0.9631677571265840  0.0231569263800324  0.7054268185723132   T   T   T
  0.4986954326850039  0.4917587168049167  0.8195601004776165   T   T   T
  0.9756630270783262  0.0101082020194170  0.8267836456934745   T   T   T
  0.6336697338931145  0.9743152310855407  0.9526990243208147   T   T   T
  0.1581992897194269  0.4715181785231977  0.9519431657985749   T   T   T
  0.8188888150315634  0.6234086995636048  0.1278297623768196   T   T   T
  0.3128664788668800  0.1507142603573470  0.1470874186270592   T   T   T
  0.1526097964371331  0.6387937086092563  0.3759329766286399   T   T   T
  0.6480255585678236  0.1168384871576720  0.3982945229815087   T   T   T
  0.6452375876682339  0.0040663834775003  0.6268664360486440   T   T   T
  0.1487025531406800  0.4818043200803714  0.6482842169038605   T   T   T
  0.3151225168062410  0.9701300869517695  0.8780904338754496   T   T   T
  0.8192522692887323  0.5018618388901785  0.8962744400757856   T   T   T
  0.5640331814050228  0.0672845837098279  0.0114000698452443   T   T   T
  0.2182743042999107  0.5346806983267101  0.0142121120496768   T   T   T
  0.7328531607570454  0.3989978092902362  0.0672352899037278   T   T   T
  0.9830209171571127  0.6597838273802594  0.0720970343186877   T   T   T
  0.2289017282556713  0.9294067680685600  0.0865606659523976   T   T   T
  0.4799889872432175  0.2167040192649594  0.1024246629908916   T   T   T
  0.7188683525397295  0.9157903760264432  0.0963604573997401   T   T   T
  0.2177933947093678  0.4447001105535122  0.1166747035187896   T   T   T
  0.9093866501070949  0.3263987120383334  0.1592450784779587   T   T   T
  0.4077577767279408  0.8577240736693881  0.1788301458711246   T   T   T
  0.6515641838587385  0.5753001600321781  0.1748864685957159   T   T   T
  0.9275021643526529  0.8348998782603090  0.1779597754014830   T   T   T
  0.1501459626474215  0.1359003099487737  0.2041662659665064   T   T   T
  0.4018969989414813  0.3731412863892203  0.2089742029656421   T   T   T
  0.8999223338176350  0.1529496747051269  0.2588267921396650   T   T   T
  0.5446907207673135  0.7217445949773733  0.2674780508197969   T   T   T
  0.0697472879894292  0.8503933010648623  0.3198231736571699   T   T   T
  0.3235525902483118  0.5470389080501192  0.3277236993618402   T   T   T
  0.5749593977464613  0.3205280518326745  0.3343000339859685   T   T   T
  0.0565876560136331  0.3385114931658251  0.3414978662886270   T   T   T
  0.8136971088418292  0.0366502315092134  0.3507631951740393   T   T   T
  0.5516211046846919  0.8129971777713010  0.3688046679134160   T   T   T
  0.2534747808990332  0.9295308296429639  0.4076395353681974   T   T   T
  0.7449055616101674  0.4158861806718832  0.4273000522235577   T   T   T
  0.9860065591984366  0.7068992738569833  0.4227794854868137   T   T   T
  0.2248244775235833  0.4192854174943363  0.4408557367868013   T   T   T
  0.4813745531011691  0.1787540654368271  0.4489388128153919   T   T   T
  0.7335832915606915  0.9018029021452705  0.4578220531253052   T   T   T
  0.2584653056717983  0.0462444204691153  0.5106998098226683   T   T   T
  0.8951162893905078  0.5609300598278111  0.5128943959085532   T   T   T
  0.7299957536177359  0.2179755105141439  0.5666046761595922   T   T   T
  0.4781083251943983  0.9394935210187327  0.5759962001750480   T   T   T
  0.2175517391531940  0.7053244627689779  0.5837158209920403   T   T   T
  0.7396347735311650  0.7051957142276279  0.5966910933647753   T   T   T
  0.9778133525000072  0.4140987309039659  0.6047680905481059   T   T   T
  0.2499970413591868  0.1974680065926933  0.6139069711817200   T   T   T
  0.5491406893511979  0.3082930345302017  0.6555354359938690   T   T   T
  0.0542297006808994  0.7793327672180936  0.6843210702530413   T   T   T
  0.8119921207317233  0.0816825351617965  0.6740124273340626   T   T   T
  0.3213165104126006  0.5732952878760500  0.6963559835804105   T   T   T
  0.5727118640788120  0.8002133768397428  0.6905192284426107   T   T   T
  0.0713036329628380  0.2658995055881945  0.7047460842695656   T   T   T
  0.5429969376841157  0.3980747934554856  0.7567860578076804   T   T   T
  0.8985047504869570  0.9735663529200167  0.7663735787619856   T   T   T
  0.4004791313303571  0.7468627808355208  0.8152595514826615   T   T   T
  0.1501181014262301  0.9814323911256722  0.8209105776724357   T   T   T
  0.6517413387198516  0.5430647759205272  0.8490629073652229   T   T   T
  0.9314313879349854  0.2931142719938578  0.8468160607917312   T   T   T
  0.4062381115456830  0.2644955717492010  0.8452852438539438   T   T   T
  0.9074196755012025  0.8019862285555348  0.8657832265352212   T   T   T
  0.2203546200575985  0.6828749165026338  0.9113977131116684   T   T   T
  0.4875734691920002  0.9072653882704529  0.9185605079227628   T   T   T
  0.7235358215428178  0.2073907815322045  0.9281295939840106   T   T   T
  0.2315377671799936  0.1945421744911968  0.9372969707642653   T   T   T
  0.9833563411804604  0.4657371605161416  0.9525472304349023   T   T   T
  0.7334181062873597  0.7238152750560758  0.9578560976165136   T   T   T
  0.8543675068370717  0.5593230048777471  0.0120483899715396   T   T   T
  0.3371273734277196  0.1435293877712169  0.0185368681577316   T   T   T
  0.2495793934295989  0.3339790724000480  0.2634854666198834   T   T   T
  0.6768477026928679  0.0623378647874517  0.2805724814363657   T   T   T
  0.1278325015559716  0.5966820899657606  0.5085189513811130   T   T   T
  0.6013374143164611  0.0541312366474429  0.5126469093961461   T   T   T
  0.6754802829257329  0.0568434892755505  0.7449601919718205   T   T   T
  0.2471595700505844  0.7857492954753269  0.7610534468097327   T   T   T
 
  0.00000000E+00  0.00000000E+00  0.00000000E+00
  0.00000000E+00  0.00000000E+00  0.00000000E+00
  0.00000000E+00  0.00000000E+00  0.00000000E+00
  0.00000000E+00  0.00000000E+00  0.00000000E+00
  0.00000000E+00  0.00000000E+00  0.00000000E+00
  0.00000000E+00  0.00000000E+00  0.00000000E+00
  0.00000000E+00  0.00000000E+00  0.00000000E+00
  0.00000000E+00  0.00000000E+00  0.00000000E+00
  0.00000000E+00  0.00000000E+00  0.00000000E+00
  0.00000000E+00  0.00000000E+00  0.00000000E+00
  0.00000000E+00  0.00000000E+00  0.00000000E+00
  0.00000000E+00  0.00000000E+00  0.00000000E+00
  0.00000000E+00  0.00000000E+00  0.00000000E+00
  0.00000000E+00  0.00000000E+00  0.00000000E+00
  0.00000000E+00  0.00000000E+00  0.00000000E+00
  0.00000000E+00  0.00000000E+00  0.00000000E+00
  0.00000000E+00  0.00000000E+00  0.00000000E+00
  0.00000000E+00  0.00000000E+00  0.00000000E+00
  0.00000000E+00  0.00000000E+00  0.00000000E+00
  0.00000000E+00  0.00000000E+00  0.00000000E+00
  0.00000000E+00  0.00000000E+00  0.00000000E+00
  0.00000000E+00  0.00000000E+00  0.00000000E+00
  0.00000000E+00  0.00000000E+00  0.00000000E+00
  0.00000000E+00  0.00000000E+00  0.00000000E+00
  0.00000000E+00  0.00000000E+00  0.00000000E+00
  0.00000000E+00  0.00000000E+00  0.00000000E+00
  0.00000000E+00  0.00000000E+00  0.00000000E+00
  0.00000000E+00  0.00000000E+00  0.00000000E+00
  0.00000000E+00  0.00000000E+00  0.00000000E+00
  0.00000000E+00  0.00000000E+00  0.00000000E+00
  0.00000000E+00  0.00000000E+00  0.00000000E+00
  0.00000000E+00  0.00000000E+00  0.00000000E+00
  0.00000000E+00  0.00000000E+00  0.00000000E+00
  0.00000000E+00  0.00000000E+00  0.00000000E+00
  0.00000000E+00  0.00000000E+00  0.00000000E+00
  0.00000000E+00  0.00000000E+00  0.00000000E+00
  0.00000000E+00  0.00000000E+00  0.00000000E+00
  0.00000000E+00  0.00000000E+00  0.00000000E+00
  0.00000000E+00  0.00000000E+00  0.00000000E+00
  0.00000000E+00  0.00000000E+00  0.00000000E+00
  0.00000000E+00  0.00000000E+00  0.00000000E+00
  0.00000000E+00  0.00000000E+00  0.00000000E+00
  0.00000000E+00  0.00000000E+00  0.00000000E+00
  0.00000000E+00  0.00000000E+00  0.00000000E+00
  0.00000000E+00  0.00000000E+00  0.00000000E+00
  0.00000000E+00  0.00000000E+00  0.00000000E+00
  0.00000000E+00  0.00000000E+00  0.00000000E+00
  0.00000000E+00  0.00000000E+00  0.00000000E+00
  0.00000000E+00  0.00000000E+00  0.00000000E+00
  0.00000000E+00  0.00000000E+00  0.00000000E+00
  0.00000000E+00  0.00000000E+00  0.00000000E+00
  0.00000000E+00  0.00000000E+00  0.00000000E+00
  0.00000000E+00  0.00000000E+00  0.00000000E+00
  0.00000000E+00  0.00000000E+00  0.00000000E+00
  0.00000000E+00  0.00000000E+00  0.00000000E+00
  0.00000000E+00  0.00000000E+00  0.00000000E+00
  0.00000000E+00  0.00000000E+00  0.00000000E+00
  0.00000000E+00  0.00000000E+00  0.00000000E+00
  0.00000000E+00  0.00000000E+00  0.00000000E+00
  0.00000000E+00  0.00000000E+00  0.00000000E+00
  0.00000000E+00  0.00000000E+00  0.00000000E+00
  0.00000000E+00  0.00000000E+00  0.00000000E+00
  0.00000000E+00  0.00000000E+00  0.00000000E+00
  0.00000000E+00  0.00000000E+00  0.00000000E+00
  0.00000000E+00  0.00000000E+00  0.00000000E+00
  0.00000000E+00  0.00000000E+00  0.00000000E+00
  0.00000000E+00  0.00000000E+00  0.00000000E+00
  0.00000000E+00  0.00000000E+00  0.00000000E+00
  0.00000000E+00  0.00000000E+00  0.00000000E+00
  0.00000000E+00  0.00000000E+00  0.00000000E+00
  0.00000000E+00  0.00000000E+00  0.00000000E+00
  0.00000000E+00  0.00000000E+00  0.00000000E+00
  0.00000000E+00  0.00000000E+00  0.00000000E+00
  0.00000000E+00  0.00000000E+00  0.00000000E+00
  0.00000000E+00  0.00000000E+00  0.00000000E+00
  0.00000000E+00  0.00000000E+00  0.00000000E+00
  0.00000000E+00  0.00000000E+00  0.00000000E+00
  0.00000000E+00  0.00000000E+00  0.00000000E+00
  0.00000000E+00  0.00000000E+00  0.00000000E+00
  0.00000000E+00  0.00000000E+00  0.00000000E+00
  0.00000000E+00  0.00000000E+00  0.00000000E+00
  0.00000000E+00  0.00000000E+00  0.00000000E+00
  0.00000000E+00  0.00000000E+00  0.00000000E+00
  0.00000000E+00  0.00000000E+00  0.00000000E+00
  0.00000000E+00  0.00000000E+00  0.00000000E+00
  0.00000000E+00  0.00000000E+00  0.00000000E+00
  0.00000000E+00  0.00000000E+00  0.00000000E+00
  0.00000000E+00  0.00000000E+00  0.00000000E+00
