Primitive Cell                          
   1.00000000000000     
     7.9805516234117837    0.0185578823793936    0.0040077322336975
    -0.0733300865551952   11.1288786908700015    0.0407171384371027
    -0.0042416166217240   -0.1760925662864687    7.5829135078244061
   Nb   Si   O    Li
     8     4    32     8
Selective dynamics
Direct
  0.0179019632530668  0.5039589782313172  0.0915412234384547   T   T   T
  0.5163582027713218  0.4750745505446332  0.0912825935535224   T   T   T
  0.8526621812244528  0.9532122678370598  0.3018876891925260   T   T   T
  0.3533345486839465  0.0266822054491129  0.3356887518528424   T   T   T
  0.0745764679775434  0.4751494756211727  0.5915800697675024   T   T   T
  0.5764467714242869  0.5048233692132200  0.5912306161466603   T   T   T
  0.7399347628192032  0.9541046237452662  0.8017282385739435   T   T   T
  0.2409671091537859  0.0265662442717982  0.8355267419894048   T   T   T
  0.0432127690373747  0.2403036720390119  0.3108278356016214   T   T   T
  0.5430054756373437  0.7389607836426677  0.3223706795268839   T   T   T
  0.5527654539666784  0.2410690324099249  0.8132732400693001   T   T   T
  0.0472285741174261  0.7393963055330772  0.8199060903110791   T   T   T
  0.2900362308517686  0.4515311062264900  0.0580174916960274   T   T   T
  0.7629042894863645  0.9713908731476693  0.0643767312766030   T   T   T
  0.3245064909232624  0.0045739146361186  0.0753306008113199   T   T   T
  0.7903073233519393  0.5276776190300794  0.0843822495544231   T   T   T
  0.0167817150114189  0.3154088150104712  0.1285301324339088   T   T   T
  0.5115579420369301  0.6603373281149914  0.1416075640760113   T   T   T
  0.0625272572338531  0.8999906744510682  0.2714010263824207   T   T   T
  0.9010360282932268  0.1338418985333547  0.2985914930748379   T   T   T
  0.2362550586374752  0.1899223251869131  0.3250050112934062   T   T   T
  0.0603146349012533  0.5414765705506497  0.3297701268847604   T   T   T
  0.5384579426665681  0.4364296310772176  0.3303332013490916   T   T   T
  0.4035368518078783  0.8463898393064468  0.3313079853906444   T   T   T
  0.7380015368841697  0.7886672906676111  0.3278219113786420   T   T   T
  0.5613793746730096  0.0836788673869009  0.3722708837201125   T   T   T
  0.9991339020872445  0.3180818455599947  0.4894597058468690   T   T   T
  0.5041339579262996  0.6651686349613968  0.5040258828833544   T   T   T
  0.8023982033039303  0.5275628109790205  0.5605130876391229   T   T   T
  0.8287041944371154  0.9735017709568865  0.5637706395777187   T   T   T
  0.2683589603938117  0.0057742187520020  0.5750212733555529   T   T   T
  0.3022790638400181  0.4497279133758951  0.5820125927723581   T   T   T
  0.5809134224149517  0.3161876062112015  0.6309779562047240   T   T   T
  0.0777881563542024  0.6602433806661949  0.6397853293153304   T   T   T
  0.5287966196909935  0.9026296005581997  0.7705631252064506   T   T   T
  0.6940026120438958  0.1347325615617763  0.8023346902015049   T   T   T
  0.3588188020167280  0.1902122103841108  0.8246486165815128   T   T   T
  0.0329354921203446  0.4371584695701003  0.8283221912234637   T   T   T
  0.1891863613721867  0.8459475751068837  0.8291757907783648   T   T   T
  0.5533956833852329  0.5433655790132406  0.8315984521027602   T   T   T
  0.8534041693262040  0.7897847535638505  0.8261345118311212   T   T   T
  0.0327854135152137  0.0823750229479856  0.8721546771681901   T   T   T
  0.5957095276537601  0.3186924638704909  0.9925231079518682   T   T   T
  0.0836123058367590  0.6652839225689462  0.0015645290972088   T   T   T
  0.8501215432251712  0.1751571561620651  0.0217716182305807   T   T   T
  0.2354524013004635  0.8118529452509122  0.1147952506710368   T   T   T
  0.3981405637343016  0.3063134230465892  0.4382226583155102   T   T   T
  0.9054689008920604  0.6726598577166882  0.4357849543931280   T   T   T
  0.7450012544440625  0.1763155862784274  0.5205626171953739   T   T   T
  0.3571044100375573  0.8112126694112476  0.6161398319146443   T   T   T
  0.1903135994247975  0.3083242783717850  0.9239498757543672   T   T   T
  0.6936929472531972  0.6748210716908787  0.9492730259079281   T   T   T
 
  0.00000000E+00  0.00000000E+00  0.00000000E+00
  0.00000000E+00  0.00000000E+00  0.00000000E+00
  0.00000000E+00  0.00000000E+00  0.00000000E+00
  0.00000000E+00  0.00000000E+00  0.00000000E+00
  0.00000000E+00  0.00000000E+00  0.00000000E+00
  0.00000000E+00  0.00000000E+00  0.00000000E+00
  0.00000000E+00  0.00000000E+00  0.00000000E+00
  0.00000000E+00  0.00000000E+00  0.00000000E+00
  0.00000000E+00  0.00000000E+00  0.00000000E+00
  0.00000000E+00  0.00000000E+00  0.00000000E+00
  0.00000000E+00  0.00000000E+00  0.00000000E+00
  0.00000000E+00  0.00000000E+00  0.00000000E+00
  0.00000000E+00  0.00000000E+00  0.00000000E+00
  0.00000000E+00  0.00000000E+00  0.00000000E+00
  0.00000000E+00  0.00000000E+00  0.00000000E+00
  0.00000000E+00  0.00000000E+00  0.00000000E+00
  0.00000000E+00  0.00000000E+00  0.00000000E+00
  0.00000000E+00  0.00000000E+00  0.00000000E+00
  0.00000000E+00  0.00000000E+00  0.00000000E+00
  0.00000000E+00  0.00000000E+00  0.00000000E+00
  0.00000000E+00  0.00000000E+00  0.00000000E+00
  0.00000000E+00  0.00000000E+00  0.00000000E+00
  0.00000000E+00  0.00000000E+00  0.00000000E+00
  0.00000000E+00  0.00000000E+00  0.00000000E+00
  0.00000000E+00  0.00000000E+00  0.00000000E+00
  0.00000000E+00  0.00000000E+00  0.00000000E+00
  0.00000000E+00  0.00000000E+00  0.00000000E+00
  0.00000000E+00  0.00000000E+00  0.00000000E+00
  0.00000000E+00  0.00000000E+00  0.00000000E+00
  0.00000000E+00  0.00000000E+00  0.00000000E+00
  0.00000000E+00  0.00000000E+00  0.00000000E+00
  0.00000000E+00  0.00000000E+00  0.00000000E+00
  0.00000000E+00  0.00000000E+00  0.00000000E+00
  0.00000000E+00  0.00000000E+00  0.00000000E+00
  0.00000000E+00  0.00000000E+00  0.00000000E+00
  0.00000000E+00  0.00000000E+00  0.00000000E+00
  0.00000000E+00  0.00000000E+00  0.00000000E+00
  0.00000000E+00  0.00000000E+00  0.00000000E+00
  0.00000000E+00  0.00000000E+00  0.00000000E+00
  0.00000000E+00  0.00000000E+00  0.00000000E+00
  0.00000000E+00  0.00000000E+00  0.00000000E+00
  0.00000000E+00  0.00000000E+00  0.00000000E+00
  0.00000000E+00  0.00000000E+00  0.00000000E+00
  0.00000000E+00  0.00000000E+00  0.00000000E+00
  0.00000000E+00  0.00000000E+00  0.00000000E+00
  0.00000000E+00  0.00000000E+00  0.00000000E+00
  0.00000000E+00  0.00000000E+00  0.00000000E+00
  0.00000000E+00  0.00000000E+00  0.00000000E+00
  0.00000000E+00  0.00000000E+00  0.00000000E+00
  0.00000000E+00  0.00000000E+00  0.00000000E+00
  0.00000000E+00  0.00000000E+00  0.00000000E+00
  0.00000000E+00  0.00000000E+00  0.00000000E+00
