Primitive Cell                          
   1.00000000000000     
    14.8417021383606826    0.0355648681423680   -0.0303845808019753
    -0.1019387172935640    5.3268898502883397   -0.0201486734324321
     0.4981899311977314    0.1756740105369631    6.7004011023684145
   Ta   P    O    Li
     6     4    26     2
Selective dynamics
Direct
  0.9375314567194764  0.0006376441208999  0.2637284366679609   T   T   T
  0.4362777760771976  0.5270204584663247  0.2936472760693860   T   T   T
  0.1460230081614213  0.0200660447264696  0.5692790773742047   T   T   T
  0.6447710873084205  0.5462616399498614  0.5993871550351528   T   T   T
  0.0451968986791726  0.5118523678979088  0.9241092363706898   T   T   T
  0.5370805458221710  0.0352767623635515  0.9388035780292654   T   T   T
  0.2130843614013358  0.5457390905353279  0.2590416462000036   T   T   T
  0.7105413816160961  0.0597848761268196  0.2751952410722467   T   T   T
  0.8717387782940591  0.4868118086461948  0.5877204311572797   T   T   T
  0.3692531885146266  0.0013772303354074  0.6038120086439420   T   T   T
  0.9854150169804328  0.8166484181098355  0.0445774612796939   T   T   T
  0.1516625797017781  0.5208075286078255  0.0827327744821318   T   T   T
  0.5074846932503547  0.3278663670023292  0.0956564673970561   T   T   T
  0.6474580368322620  0.9785877942003225  0.1118785055513314   T   T   T
  0.9755293427751184  0.3056315022988372  0.1272983172205713   T   T   T
  0.4674953373055644  0.8144978987323412  0.1322656539473215   T   T   T
  0.3120398532399307  0.5056838552766578  0.1814527784283513   T   T   T
  0.8094325962531173  0.0392070873740806  0.1838537760628469   T   T   T
  0.6925765993373219  0.3354688260766352  0.3301230937843442   T   T   T
  0.2044915755433152  0.8102246348854152  0.3448531499716836   T   T   T
  0.8871781809059627  0.6729993895522881  0.4103135459494780   T   T   T
  0.1823493666683120  0.3431492312786304  0.4163501109811207   T   T   T
  0.0375085618371003  0.9778628296901672  0.4285193942787231   T   T   T
  0.5448649146691622  0.5684645146932894  0.4342710412914528   T   T   T
  0.3999387037984761  0.2037319884260924  0.4463764131688919   T   T   T
  0.6949923933705975  0.8734632936141082  0.4525788475145092   T   T   T
  0.3779326317241924  0.7367867574323910  0.5182131331235809   T   T   T
  0.8897778244116097  0.2110738404755423  0.5329891569823531   T   T   T
  0.7728184721128244  0.5068966085451336  0.6791591163308794   T   T   T
  0.2702732451729446  0.0414765808021613  0.6812650120296979   T   T   T
  0.1147982769541045  0.7324959379898743  0.7307804795266293   T   T   T
  0.6068022244337996  0.2409222317279855  0.7357648030635033   T   T   T
  0.9348281211206810  0.5681744805605931  0.7510612030388941   T   T   T
  0.0747724477677068  0.2190739261830856  0.7672281124828331   T   T   T
  0.4305561645284683  0.0266397873140818  0.7803073684149808   T   T   T
  0.5967888902654295  0.7301685492495054  0.8183712161031735   T   T   T
  0.6251689483406011  0.5692879376927067  0.1241207733307021   T   T   T
  0.9570841704958752  0.9769622934603461  0.7390629820440964   T   T   T
 
  0.00000000E+00  0.00000000E+00  0.00000000E+00
  0.00000000E+00  0.00000000E+00  0.00000000E+00
  0.00000000E+00  0.00000000E+00  0.00000000E+00
  0.00000000E+00  0.00000000E+00  0.00000000E+00
  0.00000000E+00  0.00000000E+00  0.00000000E+00
  0.00000000E+00  0.00000000E+00  0.00000000E+00
  0.00000000E+00  0.00000000E+00  0.00000000E+00
  0.00000000E+00  0.00000000E+00  0.00000000E+00
  0.00000000E+00  0.00000000E+00  0.00000000E+00
  0.00000000E+00  0.00000000E+00  0.00000000E+00
  0.00000000E+00  0.00000000E+00  0.00000000E+00
  0.00000000E+00  0.00000000E+00  0.00000000E+00
  0.00000000E+00  0.00000000E+00  0.00000000E+00
  0.00000000E+00  0.00000000E+00  0.00000000E+00
  0.00000000E+00  0.00000000E+00  0.00000000E+00
  0.00000000E+00  0.00000000E+00  0.00000000E+00
  0.00000000E+00  0.00000000E+00  0.00000000E+00
  0.00000000E+00  0.00000000E+00  0.00000000E+00
  0.00000000E+00  0.00000000E+00  0.00000000E+00
  0.00000000E+00  0.00000000E+00  0.00000000E+00
  0.00000000E+00  0.00000000E+00  0.00000000E+00
  0.00000000E+00  0.00000000E+00  0.00000000E+00
  0.00000000E+00  0.00000000E+00  0.00000000E+00
  0.00000000E+00  0.00000000E+00  0.00000000E+00
  0.00000000E+00  0.00000000E+00  0.00000000E+00
  0.00000000E+00  0.00000000E+00  0.00000000E+00
  0.00000000E+00  0.00000000E+00  0.00000000E+00
  0.00000000E+00  0.00000000E+00  0.00000000E+00
  0.00000000E+00  0.00000000E+00  0.00000000E+00
  0.00000000E+00  0.00000000E+00  0.00000000E+00
  0.00000000E+00  0.00000000E+00  0.00000000E+00
  0.00000000E+00  0.00000000E+00  0.00000000E+00
  0.00000000E+00  0.00000000E+00  0.00000000E+00
  0.00000000E+00  0.00000000E+00  0.00000000E+00
  0.00000000E+00  0.00000000E+00  0.00000000E+00
  0.00000000E+00  0.00000000E+00  0.00000000E+00
  0.00000000E+00  0.00000000E+00  0.00000000E+00
  0.00000000E+00  0.00000000E+00  0.00000000E+00
