Primitive Cell                          
   1.00000000000000     
     5.4406118468560578    0.0090478374830379    0.0219039180264368
     0.0304455177916255   12.0525674828048235    0.0133676481129222
    -0.0361687930778521   -0.0857406349676465   14.6320311112633128
   Si   Ta   O    Li
    12     8    48     8
Selective dynamics
Direct
  0.7680233697918055  0.0567523914867394  0.0508464852159847   T   T   T
  0.8267008124564654  0.5588272586110747  0.0505955639194866   T   T   T
  0.5516615934525504  0.8789328786282056  0.1808614282946337   T   T   T
  0.0310719768214796  0.3759988914683277  0.1844340694122764   T   T   T
  0.3027301315052924  0.0574273502174165  0.3113370103670050   T   T   T
  0.2509301135067545  0.5547077515479728  0.3182220040234185   T   T   T
  0.7528136608509826  0.0290956920273047  0.5515320956850545   T   T   T
  0.7916861616587738  0.5314568493433853  0.5556502191218371   T   T   T
  0.0385554869387761  0.7074268691931138  0.6818779558637758   T   T   T
  0.5279423303068995  0.2113472313308193  0.6842317125416102   T   T   T
  0.2731390840898058  0.5306035540151370  0.8110649036625901   T   T   T
  0.3192847182010894  0.0327393285156603  0.8158968253905385   T   T   T
  0.8118947388537876  0.2114663078427341  0.3671422567496307   T   T   T
  0.7417230524843745  0.7100890348212161  0.3687379585257773   T   T   T
  0.2401889591648896  0.8775263201455417  0.4959490038566869   T   T   T
  0.3107500776760190  0.3741195716522228  0.4990777481796229   T   T   T
  0.8291139616898562  0.8773533168729060  0.8658258411007367   T   T   T
  0.7599585466155148  0.3769261739319276  0.8682345723551776   T   T   T
  0.3324196319753199  0.7125866114775619  0.9934449682235780   T   T   T
  0.2599312818366357  0.2128799315444212  0.9977191520487736   T   T   T
  0.0458320920795074  0.1018478219095158  0.0675022370436551   T   T   T
  0.0409199137572926  0.6498055583852107  0.0691670788595289   T   T   T
  0.5564795881182789  0.6132799080373204  0.0707292821668091   T   T   T
  0.5559446282655571  0.1473180073506626  0.0736090188843761   T   T   T
  0.3549357139755003  0.8178288774479583  0.1109851616609703   T   T   T
  0.2117063011753615  0.3075484522567820  0.1146879391325228   T   T   T
  0.7612336421091896  0.9504261745338525  0.1251475078942192   T   T   T
  0.8412362792120902  0.4616263701837582  0.1313861628431070   T   T   T
  0.3519438597341491  0.9660777748614819  0.2280314484071155   T   T   T
  0.2317750655221218  0.4517288641601667  0.2421950200692748   T   T   T
  0.8446772006839893  0.3073731466777616  0.2505235545025286   T   T   T
  0.7101854715953948  0.8054134803908966  0.2522213774643802   T   T   T
  0.5200169136479502  0.6052871639003143  0.2934827136525442   T   T   T
  0.0355234852832922  0.6451042948151695  0.2969835497661890   T   T   T
  0.0279691579347201  0.1068806419759483  0.3000963796921639   T   T   T
  0.5074237309907801  0.1546624448976317  0.2995830198166018   T   T   T
  0.3155933329897564  0.9857803664912197  0.4052456811340761   T   T   T
  0.2499668627077511  0.5064368768578973  0.4210458984413563   T   T   T
  0.0828198515517329  0.2800729390464909  0.4312275367802343   T   T   T
  0.9626921136021949  0.8127493709039442  0.4307020159746529   T   T   T
  0.5821649244799687  0.3174049436780706  0.4336323731576357   T   T   T
  0.4546943584464600  0.7598653142758991  0.4363510937417558   T   T   T
  0.7974644715360810  0.5929864446927198  0.4554988534591899   T   T   T
  0.7481736856384558  0.0987938568071129  0.4571653253220731   T   T   T
  0.5442124949874341  0.9335708292088754  0.5649995237605268   T   T   T
  0.0251417548836201  0.9762815445959987  0.5667735971733521   T   T   T
  0.9991139075739923  0.4356725448267156  0.5697002326632727   T   T   T
  0.5097695276406924  0.4907003829082939  0.5686652673887593   T   T   T
  0.2191194279600523  0.7674445559067138  0.6056595664058975   T   T   T
  0.3563322500964219  0.2841163230934924  0.6156391492386533   T   T   T
  0.8337705084948226  0.6329092101460105  0.6289386486656454   T   T   T
  0.7169847238553899  0.1226290199693523  0.6339586740040204   T   T   T
  0.2335955164966137  0.6303809712850352  0.7372508480397855   T   T   T
  0.3248984659703140  0.1391099996076832  0.7421542672974653   T   T   T
  0.8729923972601483  0.7872056393111890  0.7487927914711392   T   T   T
  0.7340013598434894  0.2708095674952560  0.7509775095173836   T   T   T
  0.5278995012392471  0.9400082039205415  0.7928177595287877   T   T   T
  0.5392175542692428  0.4715839262541550  0.7975124729917553   T   T   T
  0.0405657726829816  0.9891403805596184  0.7983855793120043   T   T   T
  0.0589776921987664  0.4368898275392183  0.7975653835821959   T   T   T
  0.2761997809636725  0.5933546409746526  0.9107855568262693   T   T   T
  0.3311177094240421  0.0914016834686535  0.9153093342039256   T   T   T
  0.9908692156120011  0.2703850776152876  0.9302690499806303   T   T   T
  0.6037222911938471  0.7755331677464099  0.9297205911864239   T   T   T
  0.1022257131619213  0.8153727515439044  0.9322025530103915   T   T   T
  0.4944626814490718  0.3114043834298741  0.9365913180888228   T   T   T
  0.7615198001148258  0.9950663296050450  0.9519957040060945   T   T   T
  0.8277811477302635  0.4937435395800023  0.9540368990816575   T   T   T
  0.1335575881411231  0.9604697247358374  0.1228461194924435   T   T   T
  0.5283979212036556  0.5192639604042100  0.1809178514312748   T   T   T
  0.5320632605214755  0.2380772684621419  0.1846665087751731   T   T   T
  0.0391773310410528  0.7326352266331995  0.1851119854022372   T   T   T
  0.3452425166442836  0.6295195666079039  0.5176565525875603   T   T   T
  0.5451494802298384  0.8412229606692421  0.6804439318661935   T   T   T
  0.0329474049348022  0.3580375853527826  0.6830086726037052   T   T   T
  0.9553799277322028  0.1260262521142579  0.7345454379723861   T   T   T
 
  0.00000000E+00  0.00000000E+00  0.00000000E+00
  0.00000000E+00  0.00000000E+00  0.00000000E+00
  0.00000000E+00  0.00000000E+00  0.00000000E+00
  0.00000000E+00  0.00000000E+00  0.00000000E+00
  0.00000000E+00  0.00000000E+00  0.00000000E+00
  0.00000000E+00  0.00000000E+00  0.00000000E+00
  0.00000000E+00  0.00000000E+00  0.00000000E+00
  0.00000000E+00  0.00000000E+00  0.00000000E+00
  0.00000000E+00  0.00000000E+00  0.00000000E+00
  0.00000000E+00  0.00000000E+00  0.00000000E+00
  0.00000000E+00  0.00000000E+00  0.00000000E+00
  0.00000000E+00  0.00000000E+00  0.00000000E+00
  0.00000000E+00  0.00000000E+00  0.00000000E+00
  0.00000000E+00  0.00000000E+00  0.00000000E+00
  0.00000000E+00  0.00000000E+00  0.00000000E+00
  0.00000000E+00  0.00000000E+00  0.00000000E+00
  0.00000000E+00  0.00000000E+00  0.00000000E+00
  0.00000000E+00  0.00000000E+00  0.00000000E+00
  0.00000000E+00  0.00000000E+00  0.00000000E+00
  0.00000000E+00  0.00000000E+00  0.00000000E+00
  0.00000000E+00  0.00000000E+00  0.00000000E+00
  0.00000000E+00  0.00000000E+00  0.00000000E+00
  0.00000000E+00  0.00000000E+00  0.00000000E+00
  0.00000000E+00  0.00000000E+00  0.00000000E+00
  0.00000000E+00  0.00000000E+00  0.00000000E+00
  0.00000000E+00  0.00000000E+00  0.00000000E+00
  0.00000000E+00  0.00000000E+00  0.00000000E+00
  0.00000000E+00  0.00000000E+00  0.00000000E+00
  0.00000000E+00  0.00000000E+00  0.00000000E+00
  0.00000000E+00  0.00000000E+00  0.00000000E+00
  0.00000000E+00  0.00000000E+00  0.00000000E+00
  0.00000000E+00  0.00000000E+00  0.00000000E+00
  0.00000000E+00  0.00000000E+00  0.00000000E+00
  0.00000000E+00  0.00000000E+00  0.00000000E+00
  0.00000000E+00  0.00000000E+00  0.00000000E+00
  0.00000000E+00  0.00000000E+00  0.00000000E+00
  0.00000000E+00  0.00000000E+00  0.00000000E+00
  0.00000000E+00  0.00000000E+00  0.00000000E+00
  0.00000000E+00  0.00000000E+00  0.00000000E+00
  0.00000000E+00  0.00000000E+00  0.00000000E+00
  0.00000000E+00  0.00000000E+00  0.00000000E+00
  0.00000000E+00  0.00000000E+00  0.00000000E+00
  0.00000000E+00  0.00000000E+00  0.00000000E+00
  0.00000000E+00  0.00000000E+00  0.00000000E+00
  0.00000000E+00  0.00000000E+00  0.00000000E+00
  0.00000000E+00  0.00000000E+00  0.00000000E+00
  0.00000000E+00  0.00000000E+00  0.00000000E+00
  0.00000000E+00  0.00000000E+00  0.00000000E+00
  0.00000000E+00  0.00000000E+00  0.00000000E+00
  0.00000000E+00  0.00000000E+00  0.00000000E+00
  0.00000000E+00  0.00000000E+00  0.00000000E+00
  0.00000000E+00  0.00000000E+00  0.00000000E+00
  0.00000000E+00  0.00000000E+00  0.00000000E+00
  0.00000000E+00  0.00000000E+00  0.00000000E+00
  0.00000000E+00  0.00000000E+00  0.00000000E+00
  0.00000000E+00  0.00000000E+00  0.00000000E+00
  0.00000000E+00  0.00000000E+00  0.00000000E+00
  0.00000000E+00  0.00000000E+00  0.00000000E+00
  0.00000000E+00  0.00000000E+00  0.00000000E+00
  0.00000000E+00  0.00000000E+00  0.00000000E+00
  0.00000000E+00  0.00000000E+00  0.00000000E+00
  0.00000000E+00  0.00000000E+00  0.00000000E+00
  0.00000000E+00  0.00000000E+00  0.00000000E+00
  0.00000000E+00  0.00000000E+00  0.00000000E+00
  0.00000000E+00  0.00000000E+00  0.00000000E+00
  0.00000000E+00  0.00000000E+00  0.00000000E+00
  0.00000000E+00  0.00000000E+00  0.00000000E+00
  0.00000000E+00  0.00000000E+00  0.00000000E+00
  0.00000000E+00  0.00000000E+00  0.00000000E+00
  0.00000000E+00  0.00000000E+00  0.00000000E+00
  0.00000000E+00  0.00000000E+00  0.00000000E+00
  0.00000000E+00  0.00000000E+00  0.00000000E+00
  0.00000000E+00  0.00000000E+00  0.00000000E+00
  0.00000000E+00  0.00000000E+00  0.00000000E+00
  0.00000000E+00  0.00000000E+00  0.00000000E+00
  0.00000000E+00  0.00000000E+00  0.00000000E+00
