Primitive Cell                          
   1.00000000000000     
    11.0281564977609641   -0.0280872780726122   -0.0414511025331739
     0.0861989845461484    9.0748609608126376   -0.0170602603967085
     0.4088316810159595    0.2661475436796985   12.0902378031924584
   Si   Ta   O    Li
    16     8    56     8
Selective dynamics
Direct
  0.7162268962825777  0.3432316931022115  0.0034379121849852   T   T   T
  0.3282585385600143  0.4888822611365526  0.0564805930769410   T   T   T
  0.2212690375368638  0.9795308741983035  0.0647117959310037   T   T   T
  0.0847218300303823  0.4828015196676887  0.1718734357932945   T   T   T
  0.4562953010646638  0.9816450290036869  0.1777673522689582   T   T   T
  0.6079130341119665  0.5009277637826770  0.3823823983895380   T   T   T
  0.9409641245634077  0.9913386641868769  0.3870773353898116   T   T   T
  0.8312131310847946  0.5034116251853504  0.5108578954688525   T   T   T
  0.3329501993845128  0.8245356381657771  0.5208350555003065   T   T   T
  0.7167835375169886  0.0041403530154369  0.5206869270204493   T   T   T
  0.2209580696905675  0.3374129929683534  0.5381968089506373   T   T   T
  0.1042733476992410  0.8418927140603358  0.6630577640979354   T   T   T
  0.4437739764485400  0.3339352127784991  0.6679390117328268   T   T   T
  0.5857879942234447  0.8477009016620585  0.8758936066485887   T   T   T
  0.9591904668874989  0.3538095651170607  0.8802004251770583   T   T   T
  0.8225664930114149  0.8585056740854142  0.9887622190215950   T   T   T
  0.5873705793888817  0.6626902473411462  0.1191879467286157   T   T   T
  0.9491182828108293  0.1587643116631838  0.1252306245539572   T   T   T
  0.0903536038310122  0.6592847458131175  0.4218619722085251   T   T   T
  0.4631071520413528  0.1654595175313176  0.4237896307433999   T   T   T
  0.5860929625593911  0.6695086971406070  0.6257610218633047   T   T   T
  0.9515564242757364  0.1752500018153924  0.6287206582385920   T   T   T
  0.1010489306198608  0.6780049974420237  0.9263588201581499   T   T   T
  0.4616369996538339  0.1707110240026850  0.9330203721799109   T   T   T
  0.4006839695978570  0.3477479013254339  0.0074024507572545   T   T   T
  0.1559813894264366  0.8419507407904803  0.0098254380401741   T   T   T
  0.8826777161341610  0.0024441097641272  0.0428810112388760   T   T   T
  0.6413509476008770  0.4888068512102777  0.0438634422995605   T   T   T
  0.0293931491331634  0.5725774403893453  0.0660888110243789   T   T   T
  0.5108939352850399  0.0570268192179739  0.0659084030221209   T   T   T
  0.7524178402819217  0.7502043937864968  0.0833515255032253   T   T   T
  0.7878241730090210  0.2697432494089540  0.1093978312204342   T   T   T
  0.1172584998056863  0.0840518255201061  0.1247271215451988   T   T   T
  0.2163896353320069  0.4083128496987598  0.1317865454279286   T   T   T
  0.4105178200398640  0.5903527972565001  0.1356902355804408   T   T   T
  0.3159706463084007  0.9175966661529742  0.1596814649593128   T   T   T
  0.9897740579457306  0.3522837261959353  0.2102956203908235   T   T   T
  0.5329315117466322  0.8346946135479598  0.2198787483977682   T   T   T
  0.6385762558317083  0.5542161043897664  0.2550777722475885   T   T   T
  0.1203888356102922  0.6017971870967642  0.2665888755316033   T   T   T
  0.9109851305231089  0.0670256606974533  0.2663750427389857   T   T   T
  0.4494479823432158  0.1068462878183567  0.2722547665027335   T   T   T
  0.0468625382464722  0.8648421666148849  0.3788138045122622   T   T   T
  0.5090347857304920  0.3677149745260024  0.3890697091323077   T   T   T
  0.9247778364585884  0.5938791134450341  0.4266402593690231   T   T   T
  0.2667372273643380  0.7306213193516768  0.4253091049164013   T   T   T
  0.7385317031139209  0.4247714257319757  0.4232532260206625   T   T   T
  0.6294464648646354  0.0885015988934228  0.4308054051487673   T   T   T
  0.8169434066668160  0.9175899686913098  0.4415473093665980   T   T   T
  0.5707186800236173  0.6445857791404990  0.4535963158248890   T   T   T
  0.2879616731050589  0.2225072041723095  0.4515108084201387   T   T   T
  0.4141942911011043  0.9522857678967256  0.4592686682678533   T   T   T
  0.9907881198359405  0.1187661582029662  0.4668458639340969   T   T   T
  0.1507192002231790  0.4691567597188140  0.4747488279357128   T   T   T
  0.9084272155737310  0.3863499239610633  0.5840269739324810   T   T   T
  0.2242439934617551  0.9130680128546089  0.5935728763801791   T   T   T
  0.0634305129664483  0.7036437651566416  0.5877954081185237   T   T   T
  0.7546514879162416  0.6104811366527869  0.5943210737400193   T   T   T
  0.4811452023727867  0.1926188905106869  0.5910187072298072   T   T   T
  0.6314239575116147  0.8865961464505503  0.5889837116184466   T   T   T
  0.7857608164468175  0.1142352152012265  0.6029589782223965   T   T   T
  0.4156454100595965  0.7365436504785237  0.6095625632262838   T   T   T
  0.1228452503128139  0.2414450662157108  0.6126710598533691   T   T   T
  0.3171275729728649  0.4058670097434529  0.6226077344221821   T   T   T
  0.5425906457723926  0.4669856013740343  0.6595336037140882   T   T   T
  0.0066658608431140  0.9761381908806115  0.6724775940890169   T   T   T
  0.5906857463866615  0.7279606183813669  0.7769468121876670   T   T   T
  0.9397991293644168  0.2413328009691185  0.7797794616661378   T   T   T
  0.1374488289579929  0.7727592042090805  0.7844823170913173   T   T   T
  0.4248996476541009  0.2673728047949453  0.7929845356532965   T   T   T
  0.0398873096489254  0.4970896326642915  0.8387404729794099   T   T   T
  0.5038092555878109  0.9908144440120523  0.8388901017894597   T   T   T
  0.7238320670446683  0.9053420231711158  0.8970560131671803   T   T   T
  0.8253697527657806  0.4184996402400643  0.9235406631396188   T   T   T
  0.9295762805461507  0.7564926229073663  0.9324620586844006   T   T   T
  0.6289249173503677  0.2403864107349420  0.9340864642699245   T   T   T
  0.2553620166713131  0.5788144573494236  0.9590961785051277   T   T   T
  0.2928005698953058  0.0869556505042297  0.9741613864494383   T   T   T
  0.0171123339716814  0.2658014296596320  0.9854709546977034   T   T   T
  0.5318014842860421  0.7637167249730794  0.9872254969447596   T   T   T
  0.8615809114049640  0.5865706758958638  0.0251121189223866   T   T   T
  0.1885316647196831  0.2543444669260211  0.0162682834269177   T   T   T
  0.3038884560233370  0.7124623702697690  0.2510998691361266   T   T   T
  0.8123762486948465  0.3762965721655434  0.2656149731501500   T   T   T
  0.5639453069469695  0.8435870556322342  0.3826237650140740   T   T   T
  0.1636785015016073  0.0689404398194924  0.4850878484058256   T   T   T
  0.0306705956670683  0.5155186442680844  0.6719536540823796   T   T   T
  0.5020119887810495  0.0064892176163198  0.6755514335915578   T   T   T
 
  0.00000000E+00  0.00000000E+00  0.00000000E+00
  0.00000000E+00  0.00000000E+00  0.00000000E+00
  0.00000000E+00  0.00000000E+00  0.00000000E+00
  0.00000000E+00  0.00000000E+00  0.00000000E+00
  0.00000000E+00  0.00000000E+00  0.00000000E+00
  0.00000000E+00  0.00000000E+00  0.00000000E+00
  0.00000000E+00  0.00000000E+00  0.00000000E+00
  0.00000000E+00  0.00000000E+00  0.00000000E+00
  0.00000000E+00  0.00000000E+00  0.00000000E+00
  0.00000000E+00  0.00000000E+00  0.00000000E+00
  0.00000000E+00  0.00000000E+00  0.00000000E+00
  0.00000000E+00  0.00000000E+00  0.00000000E+00
  0.00000000E+00  0.00000000E+00  0.00000000E+00
  0.00000000E+00  0.00000000E+00  0.00000000E+00
  0.00000000E+00  0.00000000E+00  0.00000000E+00
  0.00000000E+00  0.00000000E+00  0.00000000E+00
  0.00000000E+00  0.00000000E+00  0.00000000E+00
  0.00000000E+00  0.00000000E+00  0.00000000E+00
  0.00000000E+00  0.00000000E+00  0.00000000E+00
  0.00000000E+00  0.00000000E+00  0.00000000E+00
  0.00000000E+00  0.00000000E+00  0.00000000E+00
  0.00000000E+00  0.00000000E+00  0.00000000E+00
  0.00000000E+00  0.00000000E+00  0.00000000E+00
  0.00000000E+00  0.00000000E+00  0.00000000E+00
  0.00000000E+00  0.00000000E+00  0.00000000E+00
  0.00000000E+00  0.00000000E+00  0.00000000E+00
  0.00000000E+00  0.00000000E+00  0.00000000E+00
  0.00000000E+00  0.00000000E+00  0.00000000E+00
  0.00000000E+00  0.00000000E+00  0.00000000E+00
  0.00000000E+00  0.00000000E+00  0.00000000E+00
  0.00000000E+00  0.00000000E+00  0.00000000E+00
  0.00000000E+00  0.00000000E+00  0.00000000E+00
  0.00000000E+00  0.00000000E+00  0.00000000E+00
  0.00000000E+00  0.00000000E+00  0.00000000E+00
  0.00000000E+00  0.00000000E+00  0.00000000E+00
  0.00000000E+00  0.00000000E+00  0.00000000E+00
  0.00000000E+00  0.00000000E+00  0.00000000E+00
  0.00000000E+00  0.00000000E+00  0.00000000E+00
  0.00000000E+00  0.00000000E+00  0.00000000E+00
  0.00000000E+00  0.00000000E+00  0.00000000E+00
  0.00000000E+00  0.00000000E+00  0.00000000E+00
  0.00000000E+00  0.00000000E+00  0.00000000E+00
  0.00000000E+00  0.00000000E+00  0.00000000E+00
  0.00000000E+00  0.00000000E+00  0.00000000E+00
  0.00000000E+00  0.00000000E+00  0.00000000E+00
  0.00000000E+00  0.00000000E+00  0.00000000E+00
  0.00000000E+00  0.00000000E+00  0.00000000E+00
  0.00000000E+00  0.00000000E+00  0.00000000E+00
  0.00000000E+00  0.00000000E+00  0.00000000E+00
  0.00000000E+00  0.00000000E+00  0.00000000E+00
  0.00000000E+00  0.00000000E+00  0.00000000E+00
  0.00000000E+00  0.00000000E+00  0.00000000E+00
  0.00000000E+00  0.00000000E+00  0.00000000E+00
  0.00000000E+00  0.00000000E+00  0.00000000E+00
  0.00000000E+00  0.00000000E+00  0.00000000E+00
  0.00000000E+00  0.00000000E+00  0.00000000E+00
  0.00000000E+00  0.00000000E+00  0.00000000E+00
  0.00000000E+00  0.00000000E+00  0.00000000E+00
  0.00000000E+00  0.00000000E+00  0.00000000E+00
  0.00000000E+00  0.00000000E+00  0.00000000E+00
  0.00000000E+00  0.00000000E+00  0.00000000E+00
  0.00000000E+00  0.00000000E+00  0.00000000E+00
  0.00000000E+00  0.00000000E+00  0.00000000E+00
  0.00000000E+00  0.00000000E+00  0.00000000E+00
  0.00000000E+00  0.00000000E+00  0.00000000E+00
  0.00000000E+00  0.00000000E+00  0.00000000E+00
  0.00000000E+00  0.00000000E+00  0.00000000E+00
  0.00000000E+00  0.00000000E+00  0.00000000E+00
  0.00000000E+00  0.00000000E+00  0.00000000E+00
  0.00000000E+00  0.00000000E+00  0.00000000E+00
  0.00000000E+00  0.00000000E+00  0.00000000E+00
  0.00000000E+00  0.00000000E+00  0.00000000E+00
  0.00000000E+00  0.00000000E+00  0.00000000E+00
  0.00000000E+00  0.00000000E+00  0.00000000E+00
  0.00000000E+00  0.00000000E+00  0.00000000E+00
  0.00000000E+00  0.00000000E+00  0.00000000E+00
  0.00000000E+00  0.00000000E+00  0.00000000E+00
  0.00000000E+00  0.00000000E+00  0.00000000E+00
  0.00000000E+00  0.00000000E+00  0.00000000E+00
  0.00000000E+00  0.00000000E+00  0.00000000E+00
  0.00000000E+00  0.00000000E+00  0.00000000E+00
  0.00000000E+00  0.00000000E+00  0.00000000E+00
  0.00000000E+00  0.00000000E+00  0.00000000E+00
  0.00000000E+00  0.00000000E+00  0.00000000E+00
  0.00000000E+00  0.00000000E+00  0.00000000E+00
  0.00000000E+00  0.00000000E+00  0.00000000E+00
  0.00000000E+00  0.00000000E+00  0.00000000E+00
  0.00000000E+00  0.00000000E+00  0.00000000E+00
