Primitive Cell                          
   1.00000000000000     
     8.4255751302215156   -0.0078724639912752   -0.0894866300309615
     0.0361040646931511    5.1054374698260814   -0.0113955944134366
    -2.5747494958373962   -0.3066218913089684   11.6702098980848170
   P    Al   O    Li
     8     4    28     4
Selective dynamics
Direct
  0.2050991676762948  0.7316753363477986  0.2037055979523288   T   T   T
  0.7574917176138456  0.2168718217119832  0.2273038720207694   T   T   T
  0.6071424493579798  0.7682662603766843  0.4578419718090529   T   T   T
  0.1594433222671228  0.2616063509150237  0.4802730289416033   T   T   T
  0.6988876154138381  0.7675121034521837  0.7049318451836797   T   T   T
  0.2534326322362119  0.2239340199589464  0.7284802431819557   T   T   T
  0.1018754136368969  0.7432061337914959  0.9568681689045988   T   T   T
  0.6540142984545412  0.2779483717859819  0.9806174139228787   T   T   T
  0.4197414905225259  0.2482364679461000  0.3125160635219899   T   T   T
  0.9474383564125262  0.7386622078200489  0.3740593127047305   T   T   T
  0.9119188122546333  0.2543332425712634  0.8105419741058739   T   T   T
  0.4416740545267359  0.7534989890794961  0.8765758347615318   T   T   T
  0.0727043312664151  0.7822570545214020  0.0862166858551134   T   T   T
  0.7880791081061247  0.2368147199204316  0.0993723905176651   T   T   T
  0.2873869521747920  0.4648642743115161  0.1885320776362107   T   T   T
  0.3381821637303020  0.9472152303729686  0.2131137751833947   T   T   T
  0.5718140530908613  0.2699333357703040  0.2115636386210724   T   T   T
  0.8003767615521369  0.9392173682367257  0.2664062729469734   T   T   T
  0.8595508719653964  0.4274708526029301  0.2998352191816522   T   T   T
  0.1139007815660520  0.7504988349899477  0.2972475187428074   T   T   T
  0.2546324588559372  0.2414844762710757  0.3884929484617174   T   T   T
  0.5074115988708812  0.5651326377932051  0.3797475645797803   T   T   T
  0.5648710014796450  0.0511795504316055  0.4231675087331013   T   T   T
  0.7941280254844187  0.7336756610668473  0.4767325002915328   T   T   T
  0.0291810465079934  0.0450887296137097  0.4697194716577187   T   T   T
  0.0798754761526439  0.5309274082405722  0.4924643545952136   T   T   T
  0.5693322525887865  0.7283964420177043  0.5827491599333996   T   T   T
  0.2888427507559896  0.2286911229406883  0.6005514329519315   T   T   T
  0.7869001283527908  0.0264430109400280  0.6921906991014737   T   T   T
  0.8213451589960101  0.5407653745348213  0.7123848966353918   T   T   T
  0.0670980393427953  0.2706360310618194  0.7087743764916823   T   T   T
  0.2968741918268449  0.9491231625664938  0.7689216692086589   T   T   T
  0.3525771559413968  0.4404661765498901  0.7992605127849970   T   T   T
  0.6039238617664680  0.7717268439649985  0.7962678763700097   T   T   T
  0.7459921528671174  0.2740201937523068  0.8873403676444767   T   T   T
  0.0050145586371926  0.9541243823342995  0.8865208803442428   T   T   T
  0.0510142831013738  0.4660292401064297  0.9176127227418078   T   T   T
  0.2881868634877733  0.7793826282389915  0.9758005164914749   T   T   T
  0.5283490233106320  0.0570577978233757  0.9717913187601752   T   T   T
  0.5711754889590921  0.5433938644113212  0.9968296437059010   T   T   T
  0.3605579050937777  0.1332936899864094  0.0660360394704256   T   T   T
  0.4997833945314198  0.6362841665445913  0.1447094324344818   T   T   T
  0.8459970921994753  0.1302849524522927  0.5469829987570662   T   T   T
  0.0006092192572709  0.6252640994093142  0.6338078571644559   T   T   T
 
  0.00000000E+00  0.00000000E+00  0.00000000E+00
  0.00000000E+00  0.00000000E+00  0.00000000E+00
  0.00000000E+00  0.00000000E+00  0.00000000E+00
  0.00000000E+00  0.00000000E+00  0.00000000E+00
  0.00000000E+00  0.00000000E+00  0.00000000E+00
  0.00000000E+00  0.00000000E+00  0.00000000E+00
  0.00000000E+00  0.00000000E+00  0.00000000E+00
  0.00000000E+00  0.00000000E+00  0.00000000E+00
  0.00000000E+00  0.00000000E+00  0.00000000E+00
  0.00000000E+00  0.00000000E+00  0.00000000E+00
  0.00000000E+00  0.00000000E+00  0.00000000E+00
  0.00000000E+00  0.00000000E+00  0.00000000E+00
  0.00000000E+00  0.00000000E+00  0.00000000E+00
  0.00000000E+00  0.00000000E+00  0.00000000E+00
  0.00000000E+00  0.00000000E+00  0.00000000E+00
  0.00000000E+00  0.00000000E+00  0.00000000E+00
  0.00000000E+00  0.00000000E+00  0.00000000E+00
  0.00000000E+00  0.00000000E+00  0.00000000E+00
  0.00000000E+00  0.00000000E+00  0.00000000E+00
  0.00000000E+00  0.00000000E+00  0.00000000E+00
  0.00000000E+00  0.00000000E+00  0.00000000E+00
  0.00000000E+00  0.00000000E+00  0.00000000E+00
  0.00000000E+00  0.00000000E+00  0.00000000E+00
  0.00000000E+00  0.00000000E+00  0.00000000E+00
  0.00000000E+00  0.00000000E+00  0.00000000E+00
  0.00000000E+00  0.00000000E+00  0.00000000E+00
  0.00000000E+00  0.00000000E+00  0.00000000E+00
  0.00000000E+00  0.00000000E+00  0.00000000E+00
  0.00000000E+00  0.00000000E+00  0.00000000E+00
  0.00000000E+00  0.00000000E+00  0.00000000E+00
  0.00000000E+00  0.00000000E+00  0.00000000E+00
  0.00000000E+00  0.00000000E+00  0.00000000E+00
  0.00000000E+00  0.00000000E+00  0.00000000E+00
  0.00000000E+00  0.00000000E+00  0.00000000E+00
  0.00000000E+00  0.00000000E+00  0.00000000E+00
  0.00000000E+00  0.00000000E+00  0.00000000E+00
  0.00000000E+00  0.00000000E+00  0.00000000E+00
  0.00000000E+00  0.00000000E+00  0.00000000E+00
  0.00000000E+00  0.00000000E+00  0.00000000E+00
  0.00000000E+00  0.00000000E+00  0.00000000E+00
  0.00000000E+00  0.00000000E+00  0.00000000E+00
  0.00000000E+00  0.00000000E+00  0.00000000E+00
  0.00000000E+00  0.00000000E+00  0.00000000E+00
  0.00000000E+00  0.00000000E+00  0.00000000E+00
