Primitive Cell                          
   1.00000000000000     
     5.6122337067800210   -0.0030421750961163    0.0067307761937242
     0.1286041695382436   14.7938702749071833   -0.0017183241605276
     0.0235312100976700    0.0201347123648650   10.2659391012384376
   Si   Zr   O    Li
     8     8    40    16
Selective dynamics
Direct
  0.2748977548700324  0.0851544402346534  0.0918279959817525   T   T   T
  0.7944170904588645  0.5937318175591102  0.1001310078605897   T   T   T
  0.2865722031039155  0.5941308894783646  0.4753554115050633   T   T   T
  0.7942932763402766  0.0892500029285728  0.4768815211518600   T   T   T
  0.2819975092882814  0.2882652755620967  0.5955442996841924   T   T   T
  0.7995996325056396  0.7973348829695723  0.5937103645867339   T   T   T
  0.7876436980043096  0.2869577569584649  0.9730481582292470   T   T   T
  0.2848116961271572  0.7907325893645876  0.9784874870872073   T   T   T
  0.7750061999990621  0.9408747267456619  0.0375039873212302   T   T   T
  0.2920185707000584  0.4371633799671315  0.0388343960183946   T   T   T
  0.0282831299989397  0.2672545417320080  0.2812911807760869   T   T   T
  0.5360278494487787  0.7832390103609583  0.2889599016461304   T   T   T
  0.3010434697305868  0.9406238313444959  0.5371769903305506   T   T   T
  0.7809550734277764  0.4430492775775150  0.5390941575011681   T   T   T
  0.0304339648086440  0.6126840688882567  0.7804025232166225   T   T   T
  0.5421469298982800  0.0974791462209268  0.7873710595415062   T   T   T
  0.5402364402415500  0.5372820079619345  0.0917081938298168   T   T   T
  0.5303356992397426  0.0314463433564711  0.1122444961380609   T   T   T
  0.8129753735018426  0.2431269330901031  0.1196272803162017   T   T   T
  0.0514498532567700  0.0175787589496466  0.1175837805544759   T   T   T
  0.2951533083735569  0.7519946452798862  0.1298540271413913   T   T   T
  0.0298013259648400  0.5303093239469305  0.1315810459313198   T   T   T
  0.7863211735080640  0.8656374921810865  0.2127459024083720   T   T   T
  0.2772521122690961  0.1625842539309517  0.2078229978923716   T   T   T
  0.2546954855012302  0.3685535150525538  0.2165548007999689   T   T   T
  0.7679260519846594  0.6684164150551126  0.2163746348667885   T   T   T
  0.3043934811569002  0.6704898347928960  0.3598118570998210   T   T   T
  0.2868909573326803  0.8687081714718801  0.3594173429217520   T   T   T
  0.8263050373431113  0.3703707776158609  0.3621397934441717   T   T   T
  0.7891528355152531  0.1717194648448412  0.3684749942867143   T   T   T
  0.0392335990314052  0.0304672778924768  0.4466945406406211   T   T   T
  0.0488131885087597  0.5314208355954051  0.4469472984363776   T   T   T
  0.2605062988124303  0.2470341161335341  0.4462999150113447   T   T   T
  0.7865086366269196  0.7529093559689741  0.4461031757789087   T   T   T
  0.5501036667725288  0.0308739951637733  0.4557905835853688   T   T   T
  0.5365828713875302  0.5353688188617625  0.4674396923745974   T   T   T
  0.5274566176379949  0.3492098917567787  0.5956697455909676   T   T   T
  0.5433161294163824  0.8500890674069836  0.6138142466908150   T   T   T
  0.2537692468873942  0.6385316417987426  0.6210208036733249   T   T   T
  0.0232606499669430  0.8644232606980751  0.6193559145662348   T   T   T
  0.7839772546538697  0.1285856516692476  0.6277166586825444   T   T   T
  0.0402220126724657  0.3483410737457291  0.6285165577874423   T   T   T
  0.2910557397354836  0.0156759411779248  0.7121619686584708   T   T   T
  0.8319874418137090  0.5112564543122460  0.7114999410712031   T   T   T
  0.3114517316055938  0.2117826496455208  0.7100572586701048   T   T   T
  0.7949571131436102  0.7200903556912337  0.7106770052707390   T   T   T
  0.7697721516168983  0.2115236620474832  0.8569759229067984   T   T   T
  0.7898290461409019  0.0120519462939725  0.8587932147019046   T   T   T
  0.2956797515792502  0.7061801436895294  0.8728560022566967   T   T   T
  0.2371641442895935  0.5131912820437279  0.8693747573188446   T   T   T
  0.0406424928511271  0.8497419395995820  0.9471591190377211   T   T   T
  0.0295034392496376  0.3483515879599040  0.9474468398715530   T   T   T
  0.2903595984678162  0.1290146239454799  0.9435701430370287   T   T   T
  0.5277322833508009  0.8501262057164638  0.9570297197105546   T   T   T
  0.8190195752299658  0.6393087877991235  0.9531762626880678   T   T   T
  0.5395957451448723  0.3470570834672415  0.9661200143892827   T   T   T
  0.2924027184666613  0.6206564901622258  0.1791611759645164   T   T   T
  0.6562274982559160  0.1399738241369093  0.1994624161415572   T   T   T
  0.0359897846860378  0.7630183576421388  0.2831618418701183   T   T   T
  0.0350806055214363  0.9492109342867181  0.2862541800728735   T   T   T
  0.0398879761186848  0.4608012303786495  0.2902906050413421   T   T   T
  0.5094543667726086  0.3216186202225586  0.3395762852633553   T   T   T
  0.3074741812433288  0.1175051157290525  0.3931837984510693   T   T   T
  0.7898471646148550  0.6222115836100883  0.3991531464761877   T   T   T
  0.7744803140278194  0.2604592599092186  0.6731875231367965   T   T   T
  0.4168663975411988  0.7399664217253772  0.7001302063203383   T   T   T
  0.0432900158492870  0.1194555475980437  0.7762655535833147   T   T   T
  0.0407280952635887  0.4196580043851199  0.7882874623582978   T   T   T
  0.0451296246106736  0.9322788111929512  0.7875527023362565   T   T   T
  0.2891236623671176  0.2590907940621392  0.8944283295998758   T   T   T
  0.7747214136787193  0.7670013284708190  0.8941983421860797   T   T   T
  0.5011610820943275  0.5955734896915956  0.8964119571889100   T   T   T
 
  0.00000000E+00  0.00000000E+00  0.00000000E+00
  0.00000000E+00  0.00000000E+00  0.00000000E+00
  0.00000000E+00  0.00000000E+00  0.00000000E+00
  0.00000000E+00  0.00000000E+00  0.00000000E+00
  0.00000000E+00  0.00000000E+00  0.00000000E+00
  0.00000000E+00  0.00000000E+00  0.00000000E+00
  0.00000000E+00  0.00000000E+00  0.00000000E+00
  0.00000000E+00  0.00000000E+00  0.00000000E+00
  0.00000000E+00  0.00000000E+00  0.00000000E+00
  0.00000000E+00  0.00000000E+00  0.00000000E+00
  0.00000000E+00  0.00000000E+00  0.00000000E+00
  0.00000000E+00  0.00000000E+00  0.00000000E+00
  0.00000000E+00  0.00000000E+00  0.00000000E+00
  0.00000000E+00  0.00000000E+00  0.00000000E+00
  0.00000000E+00  0.00000000E+00  0.00000000E+00
  0.00000000E+00  0.00000000E+00  0.00000000E+00
  0.00000000E+00  0.00000000E+00  0.00000000E+00
  0.00000000E+00  0.00000000E+00  0.00000000E+00
  0.00000000E+00  0.00000000E+00  0.00000000E+00
  0.00000000E+00  0.00000000E+00  0.00000000E+00
  0.00000000E+00  0.00000000E+00  0.00000000E+00
  0.00000000E+00  0.00000000E+00  0.00000000E+00
  0.00000000E+00  0.00000000E+00  0.00000000E+00
  0.00000000E+00  0.00000000E+00  0.00000000E+00
  0.00000000E+00  0.00000000E+00  0.00000000E+00
  0.00000000E+00  0.00000000E+00  0.00000000E+00
  0.00000000E+00  0.00000000E+00  0.00000000E+00
  0.00000000E+00  0.00000000E+00  0.00000000E+00
  0.00000000E+00  0.00000000E+00  0.00000000E+00
  0.00000000E+00  0.00000000E+00  0.00000000E+00
  0.00000000E+00  0.00000000E+00  0.00000000E+00
  0.00000000E+00  0.00000000E+00  0.00000000E+00
  0.00000000E+00  0.00000000E+00  0.00000000E+00
  0.00000000E+00  0.00000000E+00  0.00000000E+00
  0.00000000E+00  0.00000000E+00  0.00000000E+00
  0.00000000E+00  0.00000000E+00  0.00000000E+00
  0.00000000E+00  0.00000000E+00  0.00000000E+00
  0.00000000E+00  0.00000000E+00  0.00000000E+00
  0.00000000E+00  0.00000000E+00  0.00000000E+00
  0.00000000E+00  0.00000000E+00  0.00000000E+00
  0.00000000E+00  0.00000000E+00  0.00000000E+00
  0.00000000E+00  0.00000000E+00  0.00000000E+00
  0.00000000E+00  0.00000000E+00  0.00000000E+00
  0.00000000E+00  0.00000000E+00  0.00000000E+00
  0.00000000E+00  0.00000000E+00  0.00000000E+00
  0.00000000E+00  0.00000000E+00  0.00000000E+00
  0.00000000E+00  0.00000000E+00  0.00000000E+00
  0.00000000E+00  0.00000000E+00  0.00000000E+00
  0.00000000E+00  0.00000000E+00  0.00000000E+00
  0.00000000E+00  0.00000000E+00  0.00000000E+00
  0.00000000E+00  0.00000000E+00  0.00000000E+00
  0.00000000E+00  0.00000000E+00  0.00000000E+00
  0.00000000E+00  0.00000000E+00  0.00000000E+00
  0.00000000E+00  0.00000000E+00  0.00000000E+00
  0.00000000E+00  0.00000000E+00  0.00000000E+00
  0.00000000E+00  0.00000000E+00  0.00000000E+00
  0.00000000E+00  0.00000000E+00  0.00000000E+00
  0.00000000E+00  0.00000000E+00  0.00000000E+00
  0.00000000E+00  0.00000000E+00  0.00000000E+00
  0.00000000E+00  0.00000000E+00  0.00000000E+00
  0.00000000E+00  0.00000000E+00  0.00000000E+00
  0.00000000E+00  0.00000000E+00  0.00000000E+00
  0.00000000E+00  0.00000000E+00  0.00000000E+00
  0.00000000E+00  0.00000000E+00  0.00000000E+00
  0.00000000E+00  0.00000000E+00  0.00000000E+00
  0.00000000E+00  0.00000000E+00  0.00000000E+00
  0.00000000E+00  0.00000000E+00  0.00000000E+00
  0.00000000E+00  0.00000000E+00  0.00000000E+00
  0.00000000E+00  0.00000000E+00  0.00000000E+00
  0.00000000E+00  0.00000000E+00  0.00000000E+00
  0.00000000E+00  0.00000000E+00  0.00000000E+00
  0.00000000E+00  0.00000000E+00  0.00000000E+00
