Primitive Cell                          
   1.00000000000000     
    14.3418929716748362   -0.0083386142271545    0.0054878060918519
     0.1195654225605037   10.6294240465354903   -0.0024332394500394
     0.0061761393342435   -0.0111947685671276    7.8254481549994663
   Si   Ta   O    Li
    16     8    56     8
Selective dynamics
Direct
  0.8141530982734224  0.2751381669281514  0.0348102606348064   T   T   T
  0.5998994665303101  0.7103828547903106  0.0352424362589048   T   T   T
  0.3040492618736081  0.7606900239925878  0.0361974692169866   T   T   T
  0.1101856931446505  0.2248124009583563  0.0371507488472531   T   T   T
  0.1103878318673850  0.2278688111695502  0.4314897151042913   T   T   T
  0.8135193045632647  0.2763887184433429  0.4311868185007981   T   T   T
  0.3032622350496155  0.7570656172521097  0.4304449620887922   T   T   T
  0.6016056552113156  0.7109830076275188  0.4319659752825018   T   T   T
  0.6025537978059461  0.2623642862982152  0.5342100928501878   T   T   T
  0.8115710759273043  0.7236540225268939  0.5354680007775272   T   T   T
  0.0986847940173732  0.7637440660090036  0.5345406817186600   T   T   T
  0.3158345315857432  0.2218268346939780  0.5360400148411415   T   T   T
  0.0984409600766938  0.7610933707655292  0.9318036239971050   T   T   T
  0.3165650163492657  0.2239527993052306  0.9316444112247311   T   T   T
  0.6015683236988778  0.2624731069113508  0.9317340584340030   T   T   T
  0.8125520132014046  0.7230040281795311  0.9340961643249344   T   T   T
  0.4284213469250915  0.4874440094929469  0.4847864409045428   T   T   T
  0.9844882093910812  0.4969526092389032  0.4769262041277784   T   T   T
  0.4839617946353485  0.9858220743336190  0.4736554836606430   T   T   T
  0.9287837300440529  0.0011624606767313  0.4788216361271438   T   T   T
  0.4826468428768607  0.9858560354574948  0.9625186499662490   T   T   T
  0.9312924000938878  0.9994755336233681  0.9655792392864697   T   T   T
  0.9830395644183199  0.4958548480075038  0.9782407338278603   T   T   T
  0.4302139889226879  0.4893722698710903  0.9881414394018790   T   T   T
  0.3294064045649421  0.3667334925892476  0.0048230120549633   T   T   T
  0.0891795428149891  0.6191718783348037  0.0163725432030972   T   T   T
  0.7019154997941257  0.2902483249409542  0.0196795983612148   T   T   T
  0.7126982142337255  0.6943312728311994  0.0215011556718565   T   T   T
  0.8960559906437453  0.6461066505721931  0.0294830613624484   T   T   T
  0.5195527739957484  0.3394264935128248  0.0295875205271301   T   T   T
  0.0408209277226703  0.1052285427225996  0.0367141926366514   T   T   T
  0.0294290867968883  0.8565549903680179  0.0375610474636829   T   T   T
  0.3851447351365564  0.1281069830519002  0.0384205466412553   T   T   T
  0.3728201169230729  0.8797460301701676  0.0430320983036125   T   T   T
  0.8445949933958161  0.2720895869700968  0.2332361801907581   T   T   T
  0.2693351282976622  0.7206316030175230  0.2327632334237322   T   T   T
  0.1377315651733895  0.2602581118576097  0.2339747535997247   T   T   T
  0.5028696730657245  0.0005114271286715  0.2337085402011496   T   T   T
  0.9121857771950985  0.9829581373666869  0.2356183603818707   T   T   T
  0.9861751527609073  0.4729970781745436  0.2347713888943801   T   T   T
  0.5708735960383535  0.7169952333428995  0.2342623948917648   T   T   T
  0.4313269582933117  0.5142723629134522  0.2347952986135908   T   T   T
  0.3795542523630075  0.8686988396415387  0.4267715486027939   T   T   T
  0.3847829079300595  0.1252973051917365  0.4289156214727541   T   T   T
  0.0287433027338579  0.8590441708551353  0.4308795946489852   T   T   T
  0.0353657155779743  0.1137136992368326  0.4342437300203912   T   T   T
  0.5181440926668941  0.3361440718704074  0.4393856662354523   T   T   T
  0.8981268316444471  0.6517495712801278  0.4421550721744012   T   T   T
  0.7136714310498817  0.6838396120495815  0.4467905977171753   T   T   T
  0.7016779064017626  0.2989777965940377  0.4462286826049962   T   T   T
  0.0901916802615546  0.6222456790741262  0.4482785384911097   T   T   T
  0.3286258506347579  0.3637884672101777  0.4610420469876360   T   T   T
  0.5819231511461496  0.8531675178615714  0.5122076387599108   T   T   T
  0.8394031242184923  0.1386736704352600  0.5147006988389506   T   T   T
  0.8678776209285388  0.3933003437383391  0.5213092895081246   T   T   T
  0.2070567180470277  0.8094713652659706  0.5194489967366991   T   T   T
  0.0675971562358981  0.3551643217175879  0.5183839737359008   T   T   T
  0.3433298541879921  0.6300296777068866  0.5172321753618405   T   T   T
  0.2069255316217706  0.1788016465938611  0.5205867636633101   T   T   T
  0.5455355946371725  0.5981055550876349  0.5240456362843346   T   T   T
  0.8220431583291230  0.8771607610538652  0.5283644316691039   T   T   T
  0.5888652483538905  0.1091737616579493  0.5277736454100292   T   T   T
  0.4536589330361167  0.9845462972406622  0.7274446276236191   T   T   T
  0.9594348188670736  0.9949368025649221  0.7293441217671983   T   T   T
  0.0680490757858507  0.7596575514943567  0.7329868877541585   T   T   T
  0.8034785190955986  0.6699600913308146  0.7344837234281627   T   T   T
  0.6118275484174589  0.3159217045058469  0.7330625757437446   T   T   T
  0.3475186471988465  0.2162110361967748  0.7333404479235739   T   T   T
  0.9758773876048394  0.5252030562218906  0.7345865635561637   T   T   T
  0.4406131721003064  0.4628392030554664  0.7332762249458327   T   T   T
  0.5784328255928344  0.1131720913062111  0.9347865766230896   T   T   T
  0.8351045517264737  0.8719969247910910  0.9399985351512683   T   T   T
  0.2074606857846888  0.1824597843311579  0.9449581294620728   T   T   T
  0.2070018973639165  0.8045660395382583  0.9437565744141168   T   T   T
  0.8490627744875496  0.1425655510223791  0.9495710396508414   T   T   T
  0.5658651117400453  0.8433934929836724  0.9493299821625101   T   T   T
  0.8642964870346574  0.3955763978578517  0.9454290436154977   T   T   T
  0.0630492266778120  0.3496915217164158  0.9512792484513213   T   T   T
  0.3502080267379952  0.6362325804738518  0.9509330065385981   T   T   T
  0.5504282033079804  0.5904438638042961  0.9462569014410391   T   T   T
  0.3500053322568064  0.0126580987859057  0.2252573718597759   T   T   T
  0.0626691032141906  0.9765992076898158  0.2287171551367990   T   T   T
  0.1607482212896656  0.5853805791841822  0.2318238048867300   T   T   T
  0.9510484965966057  0.7585507497636499  0.2294398302013576   T   T   T
  0.4586665499245655  0.2390373512783270  0.2287636443389331   T   T   T
  0.6951170693832438  0.9755046581034748  0.5472173946376557   T   T   T
  0.8368696982065771  0.4776503684315685  0.7319983689173384   T   T   T
  0.5748219466757760  0.5112972386037811  0.7322964510547223   T   T   T
 
  0.00000000E+00  0.00000000E+00  0.00000000E+00
  0.00000000E+00  0.00000000E+00  0.00000000E+00
  0.00000000E+00  0.00000000E+00  0.00000000E+00
  0.00000000E+00  0.00000000E+00  0.00000000E+00
  0.00000000E+00  0.00000000E+00  0.00000000E+00
  0.00000000E+00  0.00000000E+00  0.00000000E+00
  0.00000000E+00  0.00000000E+00  0.00000000E+00
  0.00000000E+00  0.00000000E+00  0.00000000E+00
  0.00000000E+00  0.00000000E+00  0.00000000E+00
  0.00000000E+00  0.00000000E+00  0.00000000E+00
  0.00000000E+00  0.00000000E+00  0.00000000E+00
  0.00000000E+00  0.00000000E+00  0.00000000E+00
  0.00000000E+00  0.00000000E+00  0.00000000E+00
  0.00000000E+00  0.00000000E+00  0.00000000E+00
  0.00000000E+00  0.00000000E+00  0.00000000E+00
  0.00000000E+00  0.00000000E+00  0.00000000E+00
  0.00000000E+00  0.00000000E+00  0.00000000E+00
  0.00000000E+00  0.00000000E+00  0.00000000E+00
  0.00000000E+00  0.00000000E+00  0.00000000E+00
  0.00000000E+00  0.00000000E+00  0.00000000E+00
  0.00000000E+00  0.00000000E+00  0.00000000E+00
  0.00000000E+00  0.00000000E+00  0.00000000E+00
  0.00000000E+00  0.00000000E+00  0.00000000E+00
  0.00000000E+00  0.00000000E+00  0.00000000E+00
  0.00000000E+00  0.00000000E+00  0.00000000E+00
  0.00000000E+00  0.00000000E+00  0.00000000E+00
  0.00000000E+00  0.00000000E+00  0.00000000E+00
  0.00000000E+00  0.00000000E+00  0.00000000E+00
  0.00000000E+00  0.00000000E+00  0.00000000E+00
  0.00000000E+00  0.00000000E+00  0.00000000E+00
  0.00000000E+00  0.00000000E+00  0.00000000E+00
  0.00000000E+00  0.00000000E+00  0.00000000E+00
  0.00000000E+00  0.00000000E+00  0.00000000E+00
  0.00000000E+00  0.00000000E+00  0.00000000E+00
  0.00000000E+00  0.00000000E+00  0.00000000E+00
  0.00000000E+00  0.00000000E+00  0.00000000E+00
  0.00000000E+00  0.00000000E+00  0.00000000E+00
  0.00000000E+00  0.00000000E+00  0.00000000E+00
  0.00000000E+00  0.00000000E+00  0.00000000E+00
  0.00000000E+00  0.00000000E+00  0.00000000E+00
  0.00000000E+00  0.00000000E+00  0.00000000E+00
  0.00000000E+00  0.00000000E+00  0.00000000E+00
  0.00000000E+00  0.00000000E+00  0.00000000E+00
  0.00000000E+00  0.00000000E+00  0.00000000E+00
  0.00000000E+00  0.00000000E+00  0.00000000E+00
  0.00000000E+00  0.00000000E+00  0.00000000E+00
  0.00000000E+00  0.00000000E+00  0.00000000E+00
  0.00000000E+00  0.00000000E+00  0.00000000E+00
  0.00000000E+00  0.00000000E+00  0.00000000E+00
  0.00000000E+00  0.00000000E+00  0.00000000E+00
  0.00000000E+00  0.00000000E+00  0.00000000E+00
  0.00000000E+00  0.00000000E+00  0.00000000E+00
  0.00000000E+00  0.00000000E+00  0.00000000E+00
  0.00000000E+00  0.00000000E+00  0.00000000E+00
  0.00000000E+00  0.00000000E+00  0.00000000E+00
  0.00000000E+00  0.00000000E+00  0.00000000E+00
  0.00000000E+00  0.00000000E+00  0.00000000E+00
  0.00000000E+00  0.00000000E+00  0.00000000E+00
  0.00000000E+00  0.00000000E+00  0.00000000E+00
  0.00000000E+00  0.00000000E+00  0.00000000E+00
  0.00000000E+00  0.00000000E+00  0.00000000E+00
  0.00000000E+00  0.00000000E+00  0.00000000E+00
  0.00000000E+00  0.00000000E+00  0.00000000E+00
  0.00000000E+00  0.00000000E+00  0.00000000E+00
  0.00000000E+00  0.00000000E+00  0.00000000E+00
  0.00000000E+00  0.00000000E+00  0.00000000E+00
  0.00000000E+00  0.00000000E+00  0.00000000E+00
  0.00000000E+00  0.00000000E+00  0.00000000E+00
  0.00000000E+00  0.00000000E+00  0.00000000E+00
  0.00000000E+00  0.00000000E+00  0.00000000E+00
  0.00000000E+00  0.00000000E+00  0.00000000E+00
  0.00000000E+00  0.00000000E+00  0.00000000E+00
  0.00000000E+00  0.00000000E+00  0.00000000E+00
  0.00000000E+00  0.00000000E+00  0.00000000E+00
  0.00000000E+00  0.00000000E+00  0.00000000E+00
  0.00000000E+00  0.00000000E+00  0.00000000E+00
  0.00000000E+00  0.00000000E+00  0.00000000E+00
  0.00000000E+00  0.00000000E+00  0.00000000E+00
  0.00000000E+00  0.00000000E+00  0.00000000E+00
  0.00000000E+00  0.00000000E+00  0.00000000E+00
  0.00000000E+00  0.00000000E+00  0.00000000E+00
  0.00000000E+00  0.00000000E+00  0.00000000E+00
  0.00000000E+00  0.00000000E+00  0.00000000E+00
  0.00000000E+00  0.00000000E+00  0.00000000E+00
  0.00000000E+00  0.00000000E+00  0.00000000E+00
  0.00000000E+00  0.00000000E+00  0.00000000E+00
  0.00000000E+00  0.00000000E+00  0.00000000E+00
  0.00000000E+00  0.00000000E+00  0.00000000E+00
