Primitive Cell                          
   1.00000000000000     
     8.9963028629987871    0.0237986416068351   -0.0658570303358662
    -0.0439510209634207    5.3561255875065346   -0.0091802018699818
    -2.0946507529328446   -0.6215496333855021   12.3363049174417316
   Si   Nb   O    Li
     8     4    28     4
Selective dynamics
Direct
  0.2567015440550193  0.7618128492277378  0.0587284762574001   T   T   T
  0.8168771499194492  0.3054906226490246  0.0868558955319543   T   T   T
  0.6497360551966977  0.8249070234364595  0.3218925693568906   T   T   T
  0.1972719587126974  0.3285548487623871  0.3481187763597333   T   T   T
  0.7369786159753886  0.7779143026705739  0.5619240815600435   T   T   T
  0.2826762447143452  0.2946357987077306  0.5880115086537927   T   T   T
  0.1199475539770347  0.7979731026692534  0.8240333336995604   T   T   T
  0.6750962796132285  0.3484833323256282  0.8520108784619822   T   T   T
  0.4658855402750390  0.2940323642266449  0.1687758906287584   T   T   T
  0.9990181836962435  0.8179516283733292  0.2335957601677947   T   T   T
  0.9353003212223072  0.2878725130625881  0.6775994916427379   T   T   T
  0.4668509270165657  0.8210437695257298  0.7357589387135235   T   T   T
  0.3480042845431299  0.4946455618966965  0.0479971702179114   T   T   T
  0.3833295084629000  0.9908625820707115  0.0656666740027347   T   T   T
  0.6439426693280552  0.2162408178023085  0.0979856351334547   T   T   T
  0.8612345307355298  0.5852109093075057  0.1390498051639000   T   T   T
  0.9328368326845080  0.0992237367919202  0.1411215769692475   T   T   T
  0.1761134259126536  0.7743361549348791  0.1648523077327511   T   T   T
  0.5694712913663196  0.5982737051451394  0.2367224789965547   T   T   T
  0.3074798331043382  0.3265197021950144  0.2564097897603190   T   T   T
  0.5592213269336384  0.0868161741109219  0.2988583688031383   T   T   T
  0.8283536759597112  0.8710438016730819  0.3241532152459072   T   T   T
  0.0802524958744115  0.5560717053958228  0.3340393531736012   T   T   T
  0.1071082465100375  0.0665930146749361  0.3497108830751756   T   T   T
  0.6252959926255244  0.7154021719504584  0.4411441261098048   T   T   T
  0.3194335285868490  0.3580485834834732  0.4654669178588264   T   T   T
  0.8195063448220239  0.0465398543521758  0.5563870471361767   T   T   T
  0.8584901088039274  0.5565318267570376  0.5805186581000328   T   T   T
  0.1039627410101645  0.2415604934364239  0.5819128949661660   T   T   T
  0.3805004089207600  0.0519509552508666  0.6283656619787834   T   T   T
  0.6305078911252622  0.7825816491166648  0.6550086621742608   T   T   T
  0.3544491834569925  0.5297335440864614  0.6694313346813203   T   T   T
  0.7592617853900165  0.3281435894016909  0.7467829184624932   T   T   T
  0.0038753170492285  0.0004668937771228  0.7651977585944536   T   T   T
  0.0743665124176331  0.5155508280931613  0.7741152053422624   T   T   T
  0.2929546423486968  0.8878850283304658  0.8181783213480784   T   T   T
  0.5513546417240534  0.1176422910319417  0.8492279087236909   T   T   T
  0.5855799952585770  0.6146228142587731  0.8614939479165713   T   T   T
  0.8107709585119451  0.3147030175231293  0.9560442174858039   T   T   T
  0.1210132678844502  0.7946136266831445  0.9552779432351031   T   T   T
  0.5196374803014905  0.3665674204680442  0.4122032318220619   T   T   T
  0.9666952040689694  0.0555429306177473  0.4546901008258075   T   T   T
  0.3557074847632364  0.2080572667741691  0.9152793182685812   T   T   T
  0.5818272750779698  0.8945170962269273  0.9844785296548508   T   T   T
 
  0.00000000E+00  0.00000000E+00  0.00000000E+00
  0.00000000E+00  0.00000000E+00  0.00000000E+00
  0.00000000E+00  0.00000000E+00  0.00000000E+00
  0.00000000E+00  0.00000000E+00  0.00000000E+00
  0.00000000E+00  0.00000000E+00  0.00000000E+00
  0.00000000E+00  0.00000000E+00  0.00000000E+00
  0.00000000E+00  0.00000000E+00  0.00000000E+00
  0.00000000E+00  0.00000000E+00  0.00000000E+00
  0.00000000E+00  0.00000000E+00  0.00000000E+00
  0.00000000E+00  0.00000000E+00  0.00000000E+00
  0.00000000E+00  0.00000000E+00  0.00000000E+00
  0.00000000E+00  0.00000000E+00  0.00000000E+00
  0.00000000E+00  0.00000000E+00  0.00000000E+00
  0.00000000E+00  0.00000000E+00  0.00000000E+00
  0.00000000E+00  0.00000000E+00  0.00000000E+00
  0.00000000E+00  0.00000000E+00  0.00000000E+00
  0.00000000E+00  0.00000000E+00  0.00000000E+00
  0.00000000E+00  0.00000000E+00  0.00000000E+00
  0.00000000E+00  0.00000000E+00  0.00000000E+00
  0.00000000E+00  0.00000000E+00  0.00000000E+00
  0.00000000E+00  0.00000000E+00  0.00000000E+00
  0.00000000E+00  0.00000000E+00  0.00000000E+00
  0.00000000E+00  0.00000000E+00  0.00000000E+00
  0.00000000E+00  0.00000000E+00  0.00000000E+00
  0.00000000E+00  0.00000000E+00  0.00000000E+00
  0.00000000E+00  0.00000000E+00  0.00000000E+00
  0.00000000E+00  0.00000000E+00  0.00000000E+00
  0.00000000E+00  0.00000000E+00  0.00000000E+00
  0.00000000E+00  0.00000000E+00  0.00000000E+00
  0.00000000E+00  0.00000000E+00  0.00000000E+00
  0.00000000E+00  0.00000000E+00  0.00000000E+00
  0.00000000E+00  0.00000000E+00  0.00000000E+00
  0.00000000E+00  0.00000000E+00  0.00000000E+00
  0.00000000E+00  0.00000000E+00  0.00000000E+00
  0.00000000E+00  0.00000000E+00  0.00000000E+00
  0.00000000E+00  0.00000000E+00  0.00000000E+00
  0.00000000E+00  0.00000000E+00  0.00000000E+00
  0.00000000E+00  0.00000000E+00  0.00000000E+00
  0.00000000E+00  0.00000000E+00  0.00000000E+00
  0.00000000E+00  0.00000000E+00  0.00000000E+00
  0.00000000E+00  0.00000000E+00  0.00000000E+00
  0.00000000E+00  0.00000000E+00  0.00000000E+00
  0.00000000E+00  0.00000000E+00  0.00000000E+00
  0.00000000E+00  0.00000000E+00  0.00000000E+00
