Primitive Cell                          
   1.00000000000000     
     8.8979729118831958   -0.0046129367026355   -0.0343388684502934
    -4.3279464934143572    7.6978058909936111    0.0726877598319586
    -0.0883178987166164   -0.0699171014026606   22.2269378425762021
   Si   Ta   O    Li
    18    12    72    12
Selective dynamics
Direct
  0.2823844768916288  0.9251539222089420  0.0181586853302207   T   T   T
  0.0036621705011370  0.3624740806948523  0.0214991424290645   T   T   T
  0.5674533882814359  0.6402694551993662  0.0228913151615373   T   T   T
  0.8863739502617207  0.5797633879437498  0.1861218937916291   T   T   T
  0.3239237785978730  0.2989875273954681  0.1858140907256001   T   T   T
  0.6077539995239718  0.0161396602458908  0.1907243504218670   T   T   T
  0.9474259122443982  0.2560262265605928  0.3521774327559442   T   T   T
  0.2313283275009681  0.9722554431518731  0.3565188803418025   T   T   T
  0.6698309587038054  0.6938008475897490  0.3564216811380874   T   T   T
  0.5526173365324709  0.9139162090161506  0.5207533936314164   T   T   T
  0.9926455390689810  0.6346893945071272  0.5207470457219188   T   T   T
  0.2722884945512760  0.3501066719273211  0.5252138473010532   T   T   T
  0.6125959001188406  0.5875348194804531  0.6853445461602234   T   T   T
  0.8967665268392508  0.3058718330492596  0.6891173987561885   T   T   T
  0.3319012108758699  0.0259939085993750  0.6902561821941120   T   T   T
  0.6588792373883408  0.9690457969974204  0.8535216415466778   T   T   T
  0.2248131567683913  0.2507043798269208  0.8529774463217876   T   T   T
  0.9509162284649051  0.6898454337975650  0.8546010948191523   T   T   T
  0.6072098282684237  0.3049080455631028  0.0801741737530719   T   T   T
  0.2835731987088224  0.6363174624344978  0.1284301535776109   T   T   T
  0.9439248383888454  0.9750709302342813  0.2456327804972673   T   T   T
  0.6120792242788582  0.2986465125725104  0.2972722561475223   T   T   T
  0.2737820776689830  0.6366832663242761  0.4147414065726238   T   T   T
  0.9480639946450538  0.9689739098760342  0.4625525183531209   T   T   T
  0.6127347339452029  0.3087564246219543  0.5783441323400709   T   T   T
  0.2795315821069906  0.6352653767942158  0.6335548654771799   T   T   T
  0.9393047379705806  0.9728827869273360  0.7453539057132303   T   T   T
  0.6150914837620718  0.3032293804526915  0.7965327311879733   T   T   T
  0.2807082347885981  0.6454366092107051  0.9124613943791218   T   T   T
  0.9455064845948726  0.9652478163058689  0.9628751511798725   T   T   T
  0.5810802183711985  0.4618233766531503  0.0188987544610413   T   T   T
  0.9660894175439552  0.1644667368672188  0.0090500172738501   T   T   T
  0.7685740004989583  0.7964503496743447  0.0197814566754246   T   T   T
  0.1269278661807292  0.9735370629082567  0.0218966079013896   T   T   T
  0.4653858864347455  0.1047690770014853  0.0289869471991366   T   T   T
  0.8244428551260441  0.3653407698211097  0.0354681438806992   T   T   T
  0.2493923364995965  0.7750670225404406  0.0674928476682197   T   T   T
  0.1429157398714835  0.4229026358300700  0.0769287312075591   T   T   T
  0.4978313387287088  0.6639089968110738  0.0882468288921530   T   T   T
  0.3931729659055847  0.2766351994544607  0.1199254390690783   T   T   T
  0.7484837133734885  0.5196483871579005  0.1300311942065377   T   T   T
  0.6403792550882130  0.1654624593460454  0.1404813748556251   T   T   T
  0.0652942330892614  0.5758962128117204  0.1720403728261459   T   T   T
  0.4258386680035429  0.8385454228263427  0.1770122413608490   T   T   T
  0.7638754368321798  0.9684637098109121  0.1865832381973078   T   T   T
  0.1246102157933606  0.1391208516092703  0.1891184723912147   T   T   T
  0.9242134969621389  0.7778161413303479  0.1985799236991141   T   T   T
  0.3060643166958457  0.4757324258960622  0.1884439060751646   T   T   T
  0.4454740805988635  0.2982287379075927  0.2403818599703484   T   T   T
  0.8034627602011994  0.4498836055977335  0.2435838157492682   T   T   T
  0.5940724959409849  0.0805663384875146  0.2585015689605470   T   T   T
  0.9631178155144724  0.1932532586120175  0.2839356483373905   T   T   T
  0.7534541366805456  0.8226976209929759  0.2984890327857315   T   T   T
  0.1110309540849599  0.9740019853190987  0.3013390322296345   T   T   T
  0.2490152065067903  0.7958193092027130  0.3538598418519001   T   T   T
  0.6294795081743700  0.4951170087463979  0.3429889007399751   T   T   T
  0.4308415305760889  0.1322783017575375  0.3524716281536016   T   T   T
  0.7925934438730309  0.3061122057493151  0.3556113011803390   T   T   T
  0.1297948463012091  0.4320884984204056  0.3666994261369751   T   T   T
  0.4916635889727132  0.6990944038185347  0.3698959827146027   T   T   T
  0.9080844306243279  0.1016613275580482  0.4007728135420763   T   T   T
  0.8073562110469226  0.7514615546322361  0.4122744965681022   T   T   T
  0.1617525311769299  0.9967630597874830  0.4218189890182487   T   T   T
  0.0618343761543443  0.6101430464673285  0.4552200106627282   T   T   T
  0.4141212508395000  0.8524780563012584  0.4649364596225070   T   T   T
  0.3135953849315314  0.5025246732946229  0.4754123933366472   T   T   T
  0.7290621338523238  0.9042251979718898  0.5075069288258973   T   T   T
  0.0901070652686116  0.1743423699640658  0.5094213824312703   T   T   T
  0.7907170947998310  0.4771461724896042  0.5219334499940302   T   T   T
  0.4254396853324707  0.2972737559212888  0.5223903992568921   T   T   T
  0.5961472353824178  0.1151558790732636  0.5303756591918756   T   T   T
  0.9763426853214199  0.8125140615632631  0.5226839536572356   T   T   T
  0.1094092401636217  0.6323765453525709  0.5765058049270451   T   T   T
  0.4663140304094355  0.7928772420898866  0.5802724103193526   T   T   T
  0.2557528157375586  0.4154329073140630  0.5923189096806851   T   T   T
  0.6304337260105015  0.5246332582940667  0.6175272273876260   T   T   T
  0.4327191860970530  0.1504233694310386  0.6334898840798715   T   T   T
  0.7857632072308149  0.3149951624241467  0.6327630554107415   T   T   T
  0.9139556444097323  0.1298123328761989  0.6852523544874032   T   T   T
  0.2851062028019058  0.8224459794225538  0.6834699743533719   T   T   T
  0.4498225722657381  0.6228051289298975  0.6873158721094157   T   T   T
  0.0966149998278212  0.4657768340733242  0.6898379188415333   T   T   T
  0.7923718500098857  0.7660334971542824  0.6997135380021007   T   T   T
  0.1539991330288686  0.0356309010361713  0.6973710309260568   T   T   T
  0.5795287421678523  0.4364732454180995  0.7350318031105374   T   T   T
  0.4479534716250413  0.0824201618684768  0.7523929885165188   T   T   T
  0.8192504833992871  0.3180561101745312  0.7544628898040386   T   T   T
  0.7493149151451206  0.9590071117430270  0.7918330471694190   T   T   T
  0.1004149613346073  0.1952564248973232  0.7937926024116990   T   T   T
  0.9903877614748637  0.8406390338783822  0.8048704262396313   T   T   T
  0.7709709222400676  0.5096453834150978  0.8420752513788017   T   T   T
  0.4120993706868390  0.2588831033702874  0.8475966240586743   T   T   T
  0.1123455860401634  0.6478510200343379  0.8482722790295654   T   T   T
  0.4595627722004423  0.8061417752452158  0.8534383361801616   T   T   T
  0.6410927613907660  0.1451511005438988  0.8582508990252791   T   T   T
  0.2553270353813915  0.4460901324446525  0.8670269227525438   T   T   T
  0.7687663107690454  0.9596048825036263  0.9109886984612601   T   T   T
  0.1305699160719129  0.1182227022917317  0.9092854143801077   T   T   T
  0.9335465638659244  0.7514536302672639  0.9228358258036167   T   T   T
  0.3001909167930208  0.8642284807205840  0.9498331497572892   T   T   T
  0.0851908637577310  0.4953730788233202  0.9640155331857088   T   T   T
  0.4474468913460612  0.6453257275477213  0.9679864455714267   T   T   T
  0.1564336034444551  0.1776142147684681  0.0752697629723329   T   T   T
  0.7341387076519723  0.7652502112261814  0.1332366266373413   T   T   T
  0.0667805817312441  0.3875043426589357  0.2254626501450900   T   T   T
  0.4897872487134762  0.8893895064144459  0.3186030161130446   T   T   T
  0.8227163410953082  0.5088570514603603  0.4118930117335111   T   T   T
  0.3947666565680947  0.0937414693099043  0.4683678709316297   T   T   T
  0.7365138577377550  0.7173083444576491  0.5586938911464472   T   T   T
  0.1580330867878104  0.2349549192538731  0.6542236249527065   T   T   T
  0.3291400032428839  0.8217427507159485  0.7813797522118762   T   T   T
  0.0641829475122790  0.4178529132717514  0.7973227706240635   T   T   T
  0.4382420209153537  0.1016278111452564  0.9096204717425351   T   T   T
  0.8260458814238802  0.5595634261055551  0.9832598929505707   T   T   T
 
  0.00000000E+00  0.00000000E+00  0.00000000E+00
  0.00000000E+00  0.00000000E+00  0.00000000E+00
  0.00000000E+00  0.00000000E+00  0.00000000E+00
  0.00000000E+00  0.00000000E+00  0.00000000E+00
  0.00000000E+00  0.00000000E+00  0.00000000E+00
  0.00000000E+00  0.00000000E+00  0.00000000E+00
  0.00000000E+00  0.00000000E+00  0.00000000E+00
  0.00000000E+00  0.00000000E+00  0.00000000E+00
  0.00000000E+00  0.00000000E+00  0.00000000E+00
  0.00000000E+00  0.00000000E+00  0.00000000E+00
  0.00000000E+00  0.00000000E+00  0.00000000E+00
  0.00000000E+00  0.00000000E+00  0.00000000E+00
  0.00000000E+00  0.00000000E+00  0.00000000E+00
  0.00000000E+00  0.00000000E+00  0.00000000E+00
  0.00000000E+00  0.00000000E+00  0.00000000E+00
  0.00000000E+00  0.00000000E+00  0.00000000E+00
  0.00000000E+00  0.00000000E+00  0.00000000E+00
  0.00000000E+00  0.00000000E+00  0.00000000E+00
  0.00000000E+00  0.00000000E+00  0.00000000E+00
  0.00000000E+00  0.00000000E+00  0.00000000E+00
  0.00000000E+00  0.00000000E+00  0.00000000E+00
  0.00000000E+00  0.00000000E+00  0.00000000E+00
  0.00000000E+00  0.00000000E+00  0.00000000E+00
  0.00000000E+00  0.00000000E+00  0.00000000E+00
  0.00000000E+00  0.00000000E+00  0.00000000E+00
  0.00000000E+00  0.00000000E+00  0.00000000E+00
  0.00000000E+00  0.00000000E+00  0.00000000E+00
  0.00000000E+00  0.00000000E+00  0.00000000E+00
  0.00000000E+00  0.00000000E+00  0.00000000E+00
  0.00000000E+00  0.00000000E+00  0.00000000E+00
  0.00000000E+00  0.00000000E+00  0.00000000E+00
  0.00000000E+00  0.00000000E+00  0.00000000E+00
  0.00000000E+00  0.00000000E+00  0.00000000E+00
  0.00000000E+00  0.00000000E+00  0.00000000E+00
  0.00000000E+00  0.00000000E+00  0.00000000E+00
  0.00000000E+00  0.00000000E+00  0.00000000E+00
  0.00000000E+00  0.00000000E+00  0.00000000E+00
  0.00000000E+00  0.00000000E+00  0.00000000E+00
  0.00000000E+00  0.00000000E+00  0.00000000E+00
  0.00000000E+00  0.00000000E+00  0.00000000E+00
  0.00000000E+00  0.00000000E+00  0.00000000E+00
  0.00000000E+00  0.00000000E+00  0.00000000E+00
  0.00000000E+00  0.00000000E+00  0.00000000E+00
  0.00000000E+00  0.00000000E+00  0.00000000E+00
  0.00000000E+00  0.00000000E+00  0.00000000E+00
  0.00000000E+00  0.00000000E+00  0.00000000E+00
  0.00000000E+00  0.00000000E+00  0.00000000E+00
  0.00000000E+00  0.00000000E+00  0.00000000E+00
  0.00000000E+00  0.00000000E+00  0.00000000E+00
  0.00000000E+00  0.00000000E+00  0.00000000E+00
  0.00000000E+00  0.00000000E+00  0.00000000E+00
  0.00000000E+00  0.00000000E+00  0.00000000E+00
  0.00000000E+00  0.00000000E+00  0.00000000E+00
  0.00000000E+00  0.00000000E+00  0.00000000E+00
  0.00000000E+00  0.00000000E+00  0.00000000E+00
  0.00000000E+00  0.00000000E+00  0.00000000E+00
  0.00000000E+00  0.00000000E+00  0.00000000E+00
  0.00000000E+00  0.00000000E+00  0.00000000E+00
  0.00000000E+00  0.00000000E+00  0.00000000E+00
  0.00000000E+00  0.00000000E+00  0.00000000E+00
  0.00000000E+00  0.00000000E+00  0.00000000E+00
  0.00000000E+00  0.00000000E+00  0.00000000E+00
  0.00000000E+00  0.00000000E+00  0.00000000E+00
  0.00000000E+00  0.00000000E+00  0.00000000E+00
  0.00000000E+00  0.00000000E+00  0.00000000E+00
  0.00000000E+00  0.00000000E+00  0.00000000E+00
  0.00000000E+00  0.00000000E+00  0.00000000E+00
  0.00000000E+00  0.00000000E+00  0.00000000E+00
  0.00000000E+00  0.00000000E+00  0.00000000E+00
  0.00000000E+00  0.00000000E+00  0.00000000E+00
  0.00000000E+00  0.00000000E+00  0.00000000E+00
  0.00000000E+00  0.00000000E+00  0.00000000E+00
  0.00000000E+00  0.00000000E+00  0.00000000E+00
  0.00000000E+00  0.00000000E+00  0.00000000E+00
  0.00000000E+00  0.00000000E+00  0.00000000E+00
  0.00000000E+00  0.00000000E+00  0.00000000E+00
  0.00000000E+00  0.00000000E+00  0.00000000E+00
  0.00000000E+00  0.00000000E+00  0.00000000E+00
  0.00000000E+00  0.00000000E+00  0.00000000E+00
  0.00000000E+00  0.00000000E+00  0.00000000E+00
  0.00000000E+00  0.00000000E+00  0.00000000E+00
  0.00000000E+00  0.00000000E+00  0.00000000E+00
  0.00000000E+00  0.00000000E+00  0.00000000E+00
  0.00000000E+00  0.00000000E+00  0.00000000E+00
  0.00000000E+00  0.00000000E+00  0.00000000E+00
  0.00000000E+00  0.00000000E+00  0.00000000E+00
  0.00000000E+00  0.00000000E+00  0.00000000E+00
  0.00000000E+00  0.00000000E+00  0.00000000E+00
  0.00000000E+00  0.00000000E+00  0.00000000E+00
  0.00000000E+00  0.00000000E+00  0.00000000E+00
  0.00000000E+00  0.00000000E+00  0.00000000E+00
  0.00000000E+00  0.00000000E+00  0.00000000E+00
  0.00000000E+00  0.00000000E+00  0.00000000E+00
  0.00000000E+00  0.00000000E+00  0.00000000E+00
  0.00000000E+00  0.00000000E+00  0.00000000E+00
  0.00000000E+00  0.00000000E+00  0.00000000E+00
  0.00000000E+00  0.00000000E+00  0.00000000E+00
  0.00000000E+00  0.00000000E+00  0.00000000E+00
  0.00000000E+00  0.00000000E+00  0.00000000E+00
  0.00000000E+00  0.00000000E+00  0.00000000E+00
  0.00000000E+00  0.00000000E+00  0.00000000E+00
  0.00000000E+00  0.00000000E+00  0.00000000E+00
  0.00000000E+00  0.00000000E+00  0.00000000E+00
  0.00000000E+00  0.00000000E+00  0.00000000E+00
  0.00000000E+00  0.00000000E+00  0.00000000E+00
  0.00000000E+00  0.00000000E+00  0.00000000E+00
  0.00000000E+00  0.00000000E+00  0.00000000E+00
  0.00000000E+00  0.00000000E+00  0.00000000E+00
  0.00000000E+00  0.00000000E+00  0.00000000E+00
  0.00000000E+00  0.00000000E+00  0.00000000E+00
  0.00000000E+00  0.00000000E+00  0.00000000E+00
  0.00000000E+00  0.00000000E+00  0.00000000E+00
  0.00000000E+00  0.00000000E+00  0.00000000E+00
  0.00000000E+00  0.00000000E+00  0.00000000E+00
