Primitive Cell                          
   1.00000000000000     
    13.2033456582748023   -0.0002358914032456    0.0123518462709126
     0.0084553475855520   13.1886854667431841    0.0162223090298867
     0.0030861306819106   -0.0382658872447727    7.4658064286266637
   Si   Ta   O    Li
    16     8    56     8
Selective dynamics
Direct
  0.2220856508221800  0.5059565509462089  0.0584284629655798   T   T   T
  0.2174347683789009  0.9597554087155586  0.0622446311395350   T   T   T
  0.7133980594201788  0.4568646184713927  0.0876118583242089   T   T   T
  0.7209244179919381  0.0060943948307255  0.0978353710012101   T   T   T
  0.0535264754850928  0.6068554496996299  0.2295426564293592   T   T   T
  0.3858044012616801  0.8587266001055198  0.2319478390278604   T   T   T
  0.5941964983165917  0.3933836643547224  0.4219779396028187   T   T   T
  0.8450976590321062  0.0669044267443724  0.4278681364213668   T   T   T
  0.4435512324815107  0.7372241963228561  0.5651780413247280   T   T   T
  0.9921711673702163  0.7291082786417462  0.5659465167747868   T   T   T
  0.9476215295479662  0.2358196710521696  0.5953742492731138   T   T   T
  0.4930415662811996  0.2305630924511135  0.5995514636142829   T   T   T
  0.3454126289867503  0.5692482487585693  0.7301104620832959   T   T   T
  0.0938215642314759  0.8998000932919297  0.7314508774114969   T   T   T
  0.8842245478680439  0.3568346452558231  0.9288224565166274   T   T   T
  0.5524104650582728  0.1077276635951918  0.9299166214488181   T   T   T
  0.0686090639283421  0.3561334575438337  0.2688356062078796   T   T   T
  0.3714297201143566  0.1089022401153557  0.2766168886440994   T   T   T
  0.0971265818730984  0.0804922440753515  0.3882622901304273   T   T   T
  0.3393743712327932  0.3880385345844104  0.3915491033697194   T   T   T
  0.5959494294145102  0.5795832371270677  0.7628448692581102   T   T   T
  0.8398522557067665  0.8824896846767061  0.7687793589110186   T   T   T
  0.5641624838936892  0.8533448994040214  0.8897418249332816   T   T   T
  0.8705640143057423  0.6094495617647553  0.8910741028890072   T   T   T
  0.6092181190184718  0.4949293434184270  0.9961337859298993   T   T   T
  0.4466842356232306  0.8431743071423838  0.0466738791606147   T   T   T
  0.9842318424599199  0.6245273659327069  0.0547515594609180   T   T   T
  0.1377812736203268  0.4134081914886352  0.0616136131176646   T   T   T
  0.3031097559556599  0.0482940139738020  0.0647137555035542   T   T   T
  0.6385740077512025  0.9158836783493740  0.0973880184289939   T   T   T
  0.7984196521023179  0.5458002692453334  0.0966008365180144   T   T   T
  0.9401077247453742  0.3377947207976248  0.1211962515269249   T   T   T
  0.4930803030822943  0.1330278588996308  0.1161796506553614   T   T   T
  0.3250677031960336  0.4668787274187594  0.1598690465317247   T   T   T
  0.1130262165805789  0.9967325819257269  0.1618933779914684   T   T   T
  0.1730904023052986  0.6034458034784507  0.1671040726076356   T   T   T
  0.2607301859121591  0.8634454114393790  0.1876887439656016   T   T   T
  0.3560786216379128  0.2544385335752679  0.2556503028539439   T   T   T
  0.0818862005542229  0.2111567491343109  0.2638700459674155   T   T   T
  0.4934647081198449  0.4097717055624841  0.2960801445190597   T   T   T
  0.6956450452546292  0.4065974274166919  0.2906797580640443   T   T   T
  0.7473097732934733  0.0477031368389689  0.2984497138923814   T   T   T
  0.9490871227436486  0.0378682338302596  0.3231118654527094   T   T   T
  0.0274131096976760  0.5028225097198344  0.3383176824211134   T   T   T
  0.4142348580957602  0.9635378026201877  0.3373094384979609   T   T   T
  0.4030205232523443  0.7622236989823605  0.3633468426234359   T   T   T
  0.0411884795337656  0.7068180374805806  0.3645899563368857   T   T   T
  0.1966518633106915  0.3667985351215037  0.4014485294376726   T   T   T
  0.2406816932171765  0.0988779535693709  0.3993291380735542   T   T   T
  0.8496626881793432  0.1926931202519313  0.4724206135821873   T   T   T
  0.5928457953571566  0.2742955159490705  0.4895659994150066   T   T   T
  0.9799031778929717  0.3409926319143182  0.4986702090023272   T   T   T
  0.4529800539149420  0.1265655674502923  0.5044508655577502   T   T   T
  0.1134481785026082  0.9564063214625591  0.5392792821268557   T   T   T
  0.3354522131101376  0.5050836578930671  0.5432210150767531   T   T   T
  0.9014774358847006  0.8140128865648180  0.5589885109377803   T   T   T
  0.5350401994411556  0.6538526586928555  0.5608302264579308   T   T   T
  0.4035175802091899  0.3158154538551941  0.5941641442503425   T   T   T
  0.0356210832070545  0.1501750838232851  0.6001986375401529   T   T   T
  0.6054084005405400  0.4652763110674698  0.5952829168802722   T   T   T
  0.8292300711910485  0.0154098990725231  0.6227854475634302   T   T   T
  0.4839160066181236  0.8409625629534361  0.6619178520056010   T   T   T
  0.9537411504247402  0.6258770579944652  0.6617775678324946   T   T   T
  0.3458917172752294  0.6898351407531393  0.6747451867248060   T   T   T
  0.0921313219254998  0.7790867148106315  0.6673839107731538   T   T   T
  0.6977307624995817  0.8718795434870543  0.7590437983332095   T   T   T
  0.7408675250523871  0.5934586103442854  0.7628771685343025   T   T   T
  0.8997846118901052  0.2542731282303095  0.7982357435905030   T   T   T
  0.5288821980794864  0.2089771245874132  0.8071697351597109   T   T   T
  0.5252049960003617  0.0046528029290229  0.8248777676468961   T   T   T
  0.9155815092491011  0.4594033014647962  0.8245601709947366   T   T   T
  0.9891555412742292  0.9270152855370029  0.8348823319264014   T   T   T
  0.4491155963447895  0.5436349800301556  0.8391982211661997   T   T   T
  0.2476303816463385  0.5408531032676507  0.8546640152213811   T   T   T
  0.1914250167865745  0.9199596424238834  0.8613984536045933   T   T   T
  0.5857891554985812  0.7113672444449790  0.8947699008082495   T   T   T
  0.8527524881490294  0.7553551731411119  0.8973497590823385   T   T   T
  0.7623139660492342  0.3575850948963577  0.9798069022799041   T   T   T
  0.6765370861697733  0.1052343452312812  0.9788924762781690   T   T   T
  0.8259523422013828  0.9781807729607124  0.9902158163629409   T   T   T
  0.9697114862530896  0.9808593243540287  0.0792123532351070   T   T   T
  0.4679490308417655  0.5068458859431146  0.0914086086519887   T   T   T
  0.4758526904442562  0.2843292383572518  0.1125756041477075   T   T   T
  0.8251832613701637  0.3120062279132298  0.3043408731355441   T   T   T
  0.1572870064576151  0.8234613560964590  0.3824472662826111   T   T   T
  0.4708398298285630  0.9831404505616064  0.5823677028564802   T   T   T
  0.9781631768409511  0.4841672842487057  0.5886391876344561   T   T   T
  0.8013617769887915  0.1163974723255095  0.8189490545515454   T   T   T
 
  0.00000000E+00  0.00000000E+00  0.00000000E+00
  0.00000000E+00  0.00000000E+00  0.00000000E+00
  0.00000000E+00  0.00000000E+00  0.00000000E+00
  0.00000000E+00  0.00000000E+00  0.00000000E+00
  0.00000000E+00  0.00000000E+00  0.00000000E+00
  0.00000000E+00  0.00000000E+00  0.00000000E+00
  0.00000000E+00  0.00000000E+00  0.00000000E+00
  0.00000000E+00  0.00000000E+00  0.00000000E+00
  0.00000000E+00  0.00000000E+00  0.00000000E+00
  0.00000000E+00  0.00000000E+00  0.00000000E+00
  0.00000000E+00  0.00000000E+00  0.00000000E+00
  0.00000000E+00  0.00000000E+00  0.00000000E+00
  0.00000000E+00  0.00000000E+00  0.00000000E+00
  0.00000000E+00  0.00000000E+00  0.00000000E+00
  0.00000000E+00  0.00000000E+00  0.00000000E+00
  0.00000000E+00  0.00000000E+00  0.00000000E+00
  0.00000000E+00  0.00000000E+00  0.00000000E+00
  0.00000000E+00  0.00000000E+00  0.00000000E+00
  0.00000000E+00  0.00000000E+00  0.00000000E+00
  0.00000000E+00  0.00000000E+00  0.00000000E+00
  0.00000000E+00  0.00000000E+00  0.00000000E+00
  0.00000000E+00  0.00000000E+00  0.00000000E+00
  0.00000000E+00  0.00000000E+00  0.00000000E+00
  0.00000000E+00  0.00000000E+00  0.00000000E+00
  0.00000000E+00  0.00000000E+00  0.00000000E+00
  0.00000000E+00  0.00000000E+00  0.00000000E+00
  0.00000000E+00  0.00000000E+00  0.00000000E+00
  0.00000000E+00  0.00000000E+00  0.00000000E+00
  0.00000000E+00  0.00000000E+00  0.00000000E+00
  0.00000000E+00  0.00000000E+00  0.00000000E+00
  0.00000000E+00  0.00000000E+00  0.00000000E+00
  0.00000000E+00  0.00000000E+00  0.00000000E+00
  0.00000000E+00  0.00000000E+00  0.00000000E+00
  0.00000000E+00  0.00000000E+00  0.00000000E+00
  0.00000000E+00  0.00000000E+00  0.00000000E+00
  0.00000000E+00  0.00000000E+00  0.00000000E+00
  0.00000000E+00  0.00000000E+00  0.00000000E+00
  0.00000000E+00  0.00000000E+00  0.00000000E+00
  0.00000000E+00  0.00000000E+00  0.00000000E+00
  0.00000000E+00  0.00000000E+00  0.00000000E+00
  0.00000000E+00  0.00000000E+00  0.00000000E+00
  0.00000000E+00  0.00000000E+00  0.00000000E+00
  0.00000000E+00  0.00000000E+00  0.00000000E+00
  0.00000000E+00  0.00000000E+00  0.00000000E+00
  0.00000000E+00  0.00000000E+00  0.00000000E+00
  0.00000000E+00  0.00000000E+00  0.00000000E+00
  0.00000000E+00  0.00000000E+00  0.00000000E+00
  0.00000000E+00  0.00000000E+00  0.00000000E+00
  0.00000000E+00  0.00000000E+00  0.00000000E+00
  0.00000000E+00  0.00000000E+00  0.00000000E+00
  0.00000000E+00  0.00000000E+00  0.00000000E+00
  0.00000000E+00  0.00000000E+00  0.00000000E+00
  0.00000000E+00  0.00000000E+00  0.00000000E+00
  0.00000000E+00  0.00000000E+00  0.00000000E+00
  0.00000000E+00  0.00000000E+00  0.00000000E+00
  0.00000000E+00  0.00000000E+00  0.00000000E+00
  0.00000000E+00  0.00000000E+00  0.00000000E+00
  0.00000000E+00  0.00000000E+00  0.00000000E+00
  0.00000000E+00  0.00000000E+00  0.00000000E+00
  0.00000000E+00  0.00000000E+00  0.00000000E+00
  0.00000000E+00  0.00000000E+00  0.00000000E+00
  0.00000000E+00  0.00000000E+00  0.00000000E+00
  0.00000000E+00  0.00000000E+00  0.00000000E+00
  0.00000000E+00  0.00000000E+00  0.00000000E+00
  0.00000000E+00  0.00000000E+00  0.00000000E+00
  0.00000000E+00  0.00000000E+00  0.00000000E+00
  0.00000000E+00  0.00000000E+00  0.00000000E+00
  0.00000000E+00  0.00000000E+00  0.00000000E+00
  0.00000000E+00  0.00000000E+00  0.00000000E+00
  0.00000000E+00  0.00000000E+00  0.00000000E+00
  0.00000000E+00  0.00000000E+00  0.00000000E+00
  0.00000000E+00  0.00000000E+00  0.00000000E+00
  0.00000000E+00  0.00000000E+00  0.00000000E+00
  0.00000000E+00  0.00000000E+00  0.00000000E+00
  0.00000000E+00  0.00000000E+00  0.00000000E+00
  0.00000000E+00  0.00000000E+00  0.00000000E+00
  0.00000000E+00  0.00000000E+00  0.00000000E+00
  0.00000000E+00  0.00000000E+00  0.00000000E+00
  0.00000000E+00  0.00000000E+00  0.00000000E+00
  0.00000000E+00  0.00000000E+00  0.00000000E+00
  0.00000000E+00  0.00000000E+00  0.00000000E+00
  0.00000000E+00  0.00000000E+00  0.00000000E+00
  0.00000000E+00  0.00000000E+00  0.00000000E+00
  0.00000000E+00  0.00000000E+00  0.00000000E+00
  0.00000000E+00  0.00000000E+00  0.00000000E+00
  0.00000000E+00  0.00000000E+00  0.00000000E+00
  0.00000000E+00  0.00000000E+00  0.00000000E+00
  0.00000000E+00  0.00000000E+00  0.00000000E+00
