Primitive Cell                          
   1.00000000000000     
     7.8183590192022461   -0.0237613041315415    0.0041735828993658
    -0.1002481296185996    7.7180056559890131    0.0209365277890065
    -0.0289304061967263   -0.0480098976318730   19.9537986251662502
   Si   Nb   O    Li
    16     8    56     8
Selective dynamics
Direct
  0.3837079093015134  0.0247516720129681  0.0872884016006168   T   T   T
  0.7139001300540215  0.5819188783614280  0.0889326155080710   T   T   T
  0.3316903720257756  0.6326636541944666  0.1079489799508906   T   T   T
  0.7610828301364663  0.9745861227279136  0.1119444535481833   T   T   T
  0.8312816755941626  0.6405237742007515  0.3389580155445273   T   T   T
  0.2611635271166932  0.9788097861190792  0.3404858237671533   T   T   T
  0.8810381955744688  0.0256912980096260  0.3619137781797548   T   T   T
  0.2118759886630954  0.5822459436430876  0.3615242294144565   T   T   T
  0.8922949540391940  0.5443383750013169  0.5850766009142845   T   T   T
  0.2127508453393787  0.0929084917735423  0.5881901708038697   T   T   T
  0.2686371658597011  0.4844447612561567  0.6079659090148368   T   T   T
  0.8339487975851299  0.1450255710297625  0.6095561644924956   T   T   T
  0.7678277593525209  0.4800003445708754  0.8376828218409997   T   T   T
  0.3335859356574247  0.1401528057649131  0.8415215292978147   T   T   T
  0.7160939024885735  0.0941776486685768  0.8592366960756692   T   T   T
  0.3926641914761007  0.5424412781587904  0.8635107547530865   T   T   T
  0.2806359382478547  0.3021323545403192  0.2215342041083659   T   T   T
  0.7782932496499981  0.3030982784322305  0.2289297335621541   T   T   T
  0.5437011293276584  0.0855609650080424  0.4701054206400954   T   T   T
  0.5474768596522708  0.5862841854119978  0.4768370625765073   T   T   T
  0.7873400338947363  0.8176217917018036  0.7214059292779567   T   T   T
  0.2894148620679786  0.8162419484887451  0.7266918868754288   T   T   T
  0.0412026371703362  0.5782862210142525  0.9708238326887013   T   T   T
  0.0378213044413940  0.0798371670509823  0.9810271754365516   T   T   T
  0.0730453526149759  0.3149807364127639  0.9938325518635693   T   T   T
  0.2767599379359851  0.0150364563424219  0.0174097288062853   T   T   T
  0.8262293396378908  0.5682049639794897  0.0197643736307498   T   T   T
  0.5091102123295670  0.5802635087276897  0.0699922146041985   T   T   T
  0.5879789358066034  0.0246891888122605  0.0697001696740145   T   T   T
  0.1627462391197128  0.5911272278353508  0.0635218581308905   T   T   T
  0.9254826215245160  0.0326796799061100  0.0650616092208978   T   T   T
  0.7715678746094738  0.4209570025884162  0.1357887986135751   T   T   T
  0.3342712895399060  0.1875010400880157  0.1350664962625245   T   T   T
  0.7617894258540190  0.7663406237325816  0.1257000252226135   T   T   T
  0.3409765897812918  0.8424575242355559  0.1295542548627466   T   T   T
  0.3195864173278125  0.5447756958773624  0.1823039815809722   T   T   T
  0.7707190671195292  0.0770435264453155  0.1822058443528576   T   T   T
  0.0488894372310753  0.3070464715738268  0.2031576591972524   T   T   T
  0.5442042268552711  0.3099849711534759  0.2475072665254174   T   T   T
  0.2761518318677290  0.0638341437115244  0.2660750835288681   T   T   T
  0.8215487041637957  0.5328235091351488  0.2695891323283632   T   T   T
  0.8390192882634295  0.8470269726236879  0.3206078966742396   T   T   T
  0.2640444106259281  0.7677407187074294  0.3222184843905467   T   T   T
  0.8322099582277858  0.1910193261426443  0.3161082082361375   T   T   T
  0.2686043721290261  0.4221236745375236  0.3134226741238137   T   T   T
  0.6620901024661237  0.5983770580128649  0.3849560310875333   T   T   T
  0.0084938818951201  0.5887903342760623  0.3791859576114192   T   T   T
  0.4258182419604992  0.0341153458248158  0.3861762506619399   T   T   T
  0.0870158652295672  0.0276012443090039  0.3803544383172621   T   T   T
  0.3267602467335209  0.5728765052806963  0.4292752634385906   T   T   T
  0.7782783965443656  0.0193218071039425  0.4333849194161985   T   T   T
  0.5732993691959152  0.3193246840342923  0.4543912923642779   T   T   T
  0.5312088170808806  0.8208414858329434  0.4980160541898258   T   T   T
  0.7882667701600496  0.5966258036323637  0.5176366787075395   T   T   T
  0.3286264139317296  0.1020329200853496  0.5211346678690063   T   T   T
  0.0975923328118995  0.5416493110853295  0.5673003712810925   T   T   T
  0.0081376954518362  0.0776059008550902  0.5684260512206123   T   T   T
  0.4380960246105303  0.5138969728067622  0.5627144881485862   T   T   T
  0.6749743638940302  0.0715196722800400  0.5640248722647385   T   T   T
  0.8359484522503351  0.3556795246638274  0.6159912800308049   T   T   T
  0.2740266237221647  0.9306099563962960  0.6341977892524397   T   T   T
  0.8574672913325969  0.7008041035495509  0.6382082221733043   T   T   T
  0.2457053188025213  0.2760443338736707  0.6309037086661533   T   T   T
  0.2832263797695092  0.5771221541449023  0.6815097082642509   T   T   T
  0.8360255050087986  0.0525412219200447  0.6823878407583379   T   T   T
  0.5561851145262580  0.8252654639732313  0.6988987356592631   T   T   T
  0.0612666682715215  0.8202797860199169  0.7493828206122615   T   T   T
  0.3262234040165950  0.0653405811760024  0.7648597511578643   T   T   T
  0.7809862006045591  0.5930431204905560  0.7695964076630730   T   T   T
  0.7485191984076849  0.2746027705730683  0.8179559295553815   T   T   T
  0.3595011900548428  0.6986410937219674  0.8094271006539060   T   T   T
  0.7770962431142578  0.9306437778194621  0.8147809737732885   T   T   T
  0.3301423923855182  0.3543541264102927  0.8289212809011204   T   T   T
  0.9361257772271401  0.5129519349172256  0.8850685980240840   T   T   T
  0.5105220091688523  0.0781299648213789  0.8793462435302928   T   T   T
  0.1767220012701856  0.0653548373693482  0.8864155060292873   T   T   T
  0.5961422007495401  0.5323274483570444  0.8804950029502976   T   T   T
  0.2866100507111327  0.5913953063288702  0.9301609080762887   T   T   T
  0.8284419914507524  0.0965936042278273  0.9282285429083785   T   T   T
  0.0348940655977756  0.8167252469476480  0.9524582451157997   T   T   T
  0.0168860874972339  0.3726901845655846  0.1026385071823626   T   T   T
  0.3132957242287659  0.7980702186754769  0.2259645698253721   T   T   T
  0.5247999581789315  0.3770583474312375  0.3471501306758711   T   T   T
  0.8437697266900059  0.8781875400862234  0.5125731526944435   T   T   T
  0.5172093994827378  0.8810726972238641  0.6006926099908156   T   T   T
  0.2876552061804247  0.3195989721390191  0.7277040154353500   T   T   T
  0.0126847149045517  0.8747164373982628  0.8487014199428700   T   T   T
  0.3249417639209113  0.8655694935193878  0.9392750988923453   T   T   T
 
  0.00000000E+00  0.00000000E+00  0.00000000E+00
  0.00000000E+00  0.00000000E+00  0.00000000E+00
  0.00000000E+00  0.00000000E+00  0.00000000E+00
  0.00000000E+00  0.00000000E+00  0.00000000E+00
  0.00000000E+00  0.00000000E+00  0.00000000E+00
  0.00000000E+00  0.00000000E+00  0.00000000E+00
  0.00000000E+00  0.00000000E+00  0.00000000E+00
  0.00000000E+00  0.00000000E+00  0.00000000E+00
  0.00000000E+00  0.00000000E+00  0.00000000E+00
  0.00000000E+00  0.00000000E+00  0.00000000E+00
  0.00000000E+00  0.00000000E+00  0.00000000E+00
  0.00000000E+00  0.00000000E+00  0.00000000E+00
  0.00000000E+00  0.00000000E+00  0.00000000E+00
  0.00000000E+00  0.00000000E+00  0.00000000E+00
  0.00000000E+00  0.00000000E+00  0.00000000E+00
  0.00000000E+00  0.00000000E+00  0.00000000E+00
  0.00000000E+00  0.00000000E+00  0.00000000E+00
  0.00000000E+00  0.00000000E+00  0.00000000E+00
  0.00000000E+00  0.00000000E+00  0.00000000E+00
  0.00000000E+00  0.00000000E+00  0.00000000E+00
  0.00000000E+00  0.00000000E+00  0.00000000E+00
  0.00000000E+00  0.00000000E+00  0.00000000E+00
  0.00000000E+00  0.00000000E+00  0.00000000E+00
  0.00000000E+00  0.00000000E+00  0.00000000E+00
  0.00000000E+00  0.00000000E+00  0.00000000E+00
  0.00000000E+00  0.00000000E+00  0.00000000E+00
  0.00000000E+00  0.00000000E+00  0.00000000E+00
  0.00000000E+00  0.00000000E+00  0.00000000E+00
  0.00000000E+00  0.00000000E+00  0.00000000E+00
  0.00000000E+00  0.00000000E+00  0.00000000E+00
  0.00000000E+00  0.00000000E+00  0.00000000E+00
  0.00000000E+00  0.00000000E+00  0.00000000E+00
  0.00000000E+00  0.00000000E+00  0.00000000E+00
  0.00000000E+00  0.00000000E+00  0.00000000E+00
  0.00000000E+00  0.00000000E+00  0.00000000E+00
  0.00000000E+00  0.00000000E+00  0.00000000E+00
  0.00000000E+00  0.00000000E+00  0.00000000E+00
  0.00000000E+00  0.00000000E+00  0.00000000E+00
  0.00000000E+00  0.00000000E+00  0.00000000E+00
  0.00000000E+00  0.00000000E+00  0.00000000E+00
  0.00000000E+00  0.00000000E+00  0.00000000E+00
  0.00000000E+00  0.00000000E+00  0.00000000E+00
  0.00000000E+00  0.00000000E+00  0.00000000E+00
  0.00000000E+00  0.00000000E+00  0.00000000E+00
  0.00000000E+00  0.00000000E+00  0.00000000E+00
  0.00000000E+00  0.00000000E+00  0.00000000E+00
  0.00000000E+00  0.00000000E+00  0.00000000E+00
  0.00000000E+00  0.00000000E+00  0.00000000E+00
  0.00000000E+00  0.00000000E+00  0.00000000E+00
  0.00000000E+00  0.00000000E+00  0.00000000E+00
  0.00000000E+00  0.00000000E+00  0.00000000E+00
  0.00000000E+00  0.00000000E+00  0.00000000E+00
  0.00000000E+00  0.00000000E+00  0.00000000E+00
  0.00000000E+00  0.00000000E+00  0.00000000E+00
  0.00000000E+00  0.00000000E+00  0.00000000E+00
  0.00000000E+00  0.00000000E+00  0.00000000E+00
  0.00000000E+00  0.00000000E+00  0.00000000E+00
  0.00000000E+00  0.00000000E+00  0.00000000E+00
  0.00000000E+00  0.00000000E+00  0.00000000E+00
  0.00000000E+00  0.00000000E+00  0.00000000E+00
  0.00000000E+00  0.00000000E+00  0.00000000E+00
  0.00000000E+00  0.00000000E+00  0.00000000E+00
  0.00000000E+00  0.00000000E+00  0.00000000E+00
  0.00000000E+00  0.00000000E+00  0.00000000E+00
  0.00000000E+00  0.00000000E+00  0.00000000E+00
  0.00000000E+00  0.00000000E+00  0.00000000E+00
  0.00000000E+00  0.00000000E+00  0.00000000E+00
  0.00000000E+00  0.00000000E+00  0.00000000E+00
  0.00000000E+00  0.00000000E+00  0.00000000E+00
  0.00000000E+00  0.00000000E+00  0.00000000E+00
  0.00000000E+00  0.00000000E+00  0.00000000E+00
  0.00000000E+00  0.00000000E+00  0.00000000E+00
  0.00000000E+00  0.00000000E+00  0.00000000E+00
  0.00000000E+00  0.00000000E+00  0.00000000E+00
  0.00000000E+00  0.00000000E+00  0.00000000E+00
  0.00000000E+00  0.00000000E+00  0.00000000E+00
  0.00000000E+00  0.00000000E+00  0.00000000E+00
  0.00000000E+00  0.00000000E+00  0.00000000E+00
  0.00000000E+00  0.00000000E+00  0.00000000E+00
  0.00000000E+00  0.00000000E+00  0.00000000E+00
  0.00000000E+00  0.00000000E+00  0.00000000E+00
  0.00000000E+00  0.00000000E+00  0.00000000E+00
  0.00000000E+00  0.00000000E+00  0.00000000E+00
  0.00000000E+00  0.00000000E+00  0.00000000E+00
  0.00000000E+00  0.00000000E+00  0.00000000E+00
  0.00000000E+00  0.00000000E+00  0.00000000E+00
  0.00000000E+00  0.00000000E+00  0.00000000E+00
  0.00000000E+00  0.00000000E+00  0.00000000E+00
