Primitive Cell                          
   1.00000000000000     
    14.8599694556277644    0.0341610085208161   -0.0334370265577950
    -0.2631865019606860    8.5215614486081250   -0.0396222662264115
     0.0512142762096363    0.0385765119861243    8.3643414178466475
   Nb   P    O    Li
    12     8    52     4
Selective dynamics
Direct
  0.9157491936720277  0.8128789836532135  0.1237068155208760   T   T   T
  0.6295809215145027  0.3085394568654536  0.1312454671649945   T   T   T
  0.5201317881746519  0.6952825550399453  0.2206909426795534   T   T   T
  0.0159272077046850  0.2060131849410070  0.2268013885114684   T   T   T
  0.1368668424023056  0.8315862190449650  0.3046471964019020   T   T   T
  0.4041879224405989  0.3142695426193711  0.3185621789269177   T   T   T
  0.6340216189846188  0.7807930878152121  0.6299088293785502   T   T   T
  0.9023336284768604  0.2674428698973728  0.6441064783718602   T   T   T
  0.0235193205878232  0.8951341678919178  0.7139645024399712   T   T   T
  0.5132151150591042  0.4039575013722114  0.7301858277923756   T   T   T
  0.4073522962521210  0.7888569441926734  0.8181320623145893   T   T   T
  0.1285325910334265  0.2884674331961889  0.8180754157219354   T   T   T
  0.6904933973753700  0.9279920985445287  0.0200656670106127   T   T   T
  0.8544378009726401  0.4307289036511506  0.0227182047263170   T   T   T
  0.3556602926634227  0.9146589270511072  0.4257035095609467   T   T   T
  0.1868180191295679  0.4258639666459203  0.4307823288531694   T   T   T
  0.8502504173833643  0.6714930800525707  0.5115399810549519   T   T   T
  0.6820627697847286  0.1807674323436927  0.5237362523875433   T   T   T
  0.1837202205461850  0.6691312244161409  0.9242228637408374   T   T   T
  0.3483489765661645  0.1689484188507748  0.9287540866680217   T   T   T
  0.4649777579335108  0.7578792126850615  0.0173364820821860   T   T   T
  0.0651703846699192  0.2389542012653436  0.0202425693282038   T   T   T
  0.7837790465033052  0.8630902611062865  0.0613429001183334   T   T   T
  0.6861040909642924  0.1052884158486904  0.0540223572444418   T   T   T
  0.1787231229043229  0.7532949520542829  0.0850053723462594   T   T   T
  0.3647257620131796  0.2107894636407082  0.1049521864477185   T   T   T
  0.7594545556204793  0.4311714759112135  0.1038213388929492   T   T   T
  0.6245882020406555  0.8404895798088674  0.1360258759447888   T   T   T
  0.9149723657209705  0.3524384566057819  0.1488445752155272   T   T   T
  0.6059863916774688  0.5301440985331638  0.1881894389541685   T   T   T
  0.9327170663939199  0.0240404967162888  0.1939665912018285   T   T   T
  0.4329241441227367  0.5151439919658358  0.2344591334104038   T   T   T
  0.0185267301327841  0.7469342524255680  0.2377284167429821   T   T   T
  0.1021522645500710  0.0363939021880597  0.2585106879104728   T   T   T
  0.5273058752773068  0.2393530154548316  0.2436916159297269   T   T   T
  0.2677048152750459  0.9095201017049348  0.3301864805922463   T   T   T
  0.8417145238415458  0.7083842881181965  0.3290276319193026   T   T   T
  0.4293406177492116  0.8259192105074789  0.3341280223304395   T   T   T
  0.1053832028333304  0.3517406709294875  0.3405992727078839   T   T   T
  0.2747564917339460  0.3577186896186717  0.3606759588850323   T   T   T
  0.7006089730686114  0.2604942899026170  0.3597607489476147   T   T   T
  0.1875686580690754  0.6051197369443670  0.4116868290528259   T   T   T
  0.5857185756883325  0.7233831997624023  0.4289485865792599   T   T   T
  0.9379700016787424  0.2424258844130449  0.4284048644945813   T   T   T
  0.3934128915196311  0.0849073840080337  0.4443566556916068   T   T   T
  0.6490611917456235  0.0076036743145025  0.5083361390075467   T   T   T
  0.1029861311507574  0.8548136722856512  0.5214132438900734   T   T   T
  0.4528940912749704  0.3733160270649662  0.5198506180009375   T   T   T
  0.8525973284737560  0.4927654469885141  0.5344122304615482   T   T   T
  0.3360060924168522  0.8369350410366536  0.5901129462952142   T   T   T
  0.9331753111566314  0.7520638300720179  0.5907031171057042   T   T   T
  0.7635292882552278  0.7372887651088433  0.5898160228992850   T   T   T
  0.6022063011976755  0.2572521171330635  0.6130459220742637   T   T   T
  0.1853059840161819  0.3817902679241669  0.6103858392049872   T   T   T
  0.7698086813451042  0.1952218677164410  0.6188792549018842   T   T   T
  0.5086105756264061  0.8664403051985232  0.6971430921475417   T   T   T
  0.9345773306827212  0.0596610186832507  0.6905974304897882   T   T   T
  0.0167355288884607  0.3498988877054927  0.7209481246651777   T   T   T
  0.6056678831231821  0.5809127231096056  0.7134564700126163   T   T   T
  0.1044598372965879  0.0747942676856752  0.7499844213249389   T   T   T
  0.1216834407415703  0.7403041894385893  0.7965056101026349   T   T   T
  0.4354334479467141  0.5706820465422240  0.7675060162053526   T   T   T
  0.4193593296662073  0.2481652530125871  0.8169173480310405   T   T   T
  0.2797663183117294  0.6878394002803745  0.8536671987758098   T   T   T
  0.6700038040819649  0.8915224777778761  0.8443354593768220   T   T   T
  0.8520564122951058  0.3428446104179059  0.8646313040285918   T   T   T
  0.3569580247003188  0.9908463353257702  0.9018277889168402   T   T   T
  0.2537095745721203  0.2191986352084072  0.8821405216474858   T   T   T
  0.9766410831135062  0.8587750110761476  0.9259181239259391   T   T   T
  0.5778197441277868  0.3418080334120290  0.9302088544375664   T   T   T
  0.1582917515349820  0.4942127964951624  0.9393418465151413   T   T   T
  0.8859277368802765  0.6023955183559124  0.0048195691601123   T   T   T
  0.7257776104883220  0.6553419325652214  0.1931709324531639   T   T   T
  0.8258284317132123  0.3561389115352611  0.3345240597873698   T   T   T
  0.5141540749920708  0.0614948765223389  0.5535771772914728   T   T   T
  0.2149188513843754  0.7293239088590511  0.6157553210299653   T   T   T
 
  0.00000000E+00  0.00000000E+00  0.00000000E+00
  0.00000000E+00  0.00000000E+00  0.00000000E+00
  0.00000000E+00  0.00000000E+00  0.00000000E+00
  0.00000000E+00  0.00000000E+00  0.00000000E+00
  0.00000000E+00  0.00000000E+00  0.00000000E+00
  0.00000000E+00  0.00000000E+00  0.00000000E+00
  0.00000000E+00  0.00000000E+00  0.00000000E+00
  0.00000000E+00  0.00000000E+00  0.00000000E+00
  0.00000000E+00  0.00000000E+00  0.00000000E+00
  0.00000000E+00  0.00000000E+00  0.00000000E+00
  0.00000000E+00  0.00000000E+00  0.00000000E+00
  0.00000000E+00  0.00000000E+00  0.00000000E+00
  0.00000000E+00  0.00000000E+00  0.00000000E+00
  0.00000000E+00  0.00000000E+00  0.00000000E+00
  0.00000000E+00  0.00000000E+00  0.00000000E+00
  0.00000000E+00  0.00000000E+00  0.00000000E+00
  0.00000000E+00  0.00000000E+00  0.00000000E+00
  0.00000000E+00  0.00000000E+00  0.00000000E+00
  0.00000000E+00  0.00000000E+00  0.00000000E+00
  0.00000000E+00  0.00000000E+00  0.00000000E+00
  0.00000000E+00  0.00000000E+00  0.00000000E+00
  0.00000000E+00  0.00000000E+00  0.00000000E+00
  0.00000000E+00  0.00000000E+00  0.00000000E+00
  0.00000000E+00  0.00000000E+00  0.00000000E+00
  0.00000000E+00  0.00000000E+00  0.00000000E+00
  0.00000000E+00  0.00000000E+00  0.00000000E+00
  0.00000000E+00  0.00000000E+00  0.00000000E+00
  0.00000000E+00  0.00000000E+00  0.00000000E+00
  0.00000000E+00  0.00000000E+00  0.00000000E+00
  0.00000000E+00  0.00000000E+00  0.00000000E+00
  0.00000000E+00  0.00000000E+00  0.00000000E+00
  0.00000000E+00  0.00000000E+00  0.00000000E+00
  0.00000000E+00  0.00000000E+00  0.00000000E+00
  0.00000000E+00  0.00000000E+00  0.00000000E+00
  0.00000000E+00  0.00000000E+00  0.00000000E+00
  0.00000000E+00  0.00000000E+00  0.00000000E+00
  0.00000000E+00  0.00000000E+00  0.00000000E+00
  0.00000000E+00  0.00000000E+00  0.00000000E+00
  0.00000000E+00  0.00000000E+00  0.00000000E+00
  0.00000000E+00  0.00000000E+00  0.00000000E+00
  0.00000000E+00  0.00000000E+00  0.00000000E+00
  0.00000000E+00  0.00000000E+00  0.00000000E+00
  0.00000000E+00  0.00000000E+00  0.00000000E+00
  0.00000000E+00  0.00000000E+00  0.00000000E+00
  0.00000000E+00  0.00000000E+00  0.00000000E+00
  0.00000000E+00  0.00000000E+00  0.00000000E+00
  0.00000000E+00  0.00000000E+00  0.00000000E+00
  0.00000000E+00  0.00000000E+00  0.00000000E+00
  0.00000000E+00  0.00000000E+00  0.00000000E+00
  0.00000000E+00  0.00000000E+00  0.00000000E+00
  0.00000000E+00  0.00000000E+00  0.00000000E+00
  0.00000000E+00  0.00000000E+00  0.00000000E+00
  0.00000000E+00  0.00000000E+00  0.00000000E+00
  0.00000000E+00  0.00000000E+00  0.00000000E+00
  0.00000000E+00  0.00000000E+00  0.00000000E+00
  0.00000000E+00  0.00000000E+00  0.00000000E+00
  0.00000000E+00  0.00000000E+00  0.00000000E+00
  0.00000000E+00  0.00000000E+00  0.00000000E+00
  0.00000000E+00  0.00000000E+00  0.00000000E+00
  0.00000000E+00  0.00000000E+00  0.00000000E+00
  0.00000000E+00  0.00000000E+00  0.00000000E+00
  0.00000000E+00  0.00000000E+00  0.00000000E+00
  0.00000000E+00  0.00000000E+00  0.00000000E+00
  0.00000000E+00  0.00000000E+00  0.00000000E+00
  0.00000000E+00  0.00000000E+00  0.00000000E+00
  0.00000000E+00  0.00000000E+00  0.00000000E+00
  0.00000000E+00  0.00000000E+00  0.00000000E+00
  0.00000000E+00  0.00000000E+00  0.00000000E+00
  0.00000000E+00  0.00000000E+00  0.00000000E+00
  0.00000000E+00  0.00000000E+00  0.00000000E+00
  0.00000000E+00  0.00000000E+00  0.00000000E+00
  0.00000000E+00  0.00000000E+00  0.00000000E+00
  0.00000000E+00  0.00000000E+00  0.00000000E+00
  0.00000000E+00  0.00000000E+00  0.00000000E+00
  0.00000000E+00  0.00000000E+00  0.00000000E+00
  0.00000000E+00  0.00000000E+00  0.00000000E+00
