Primitive Cell                          
   1.00000000000000     
     5.3839871038544729   -0.0000312518313114   -0.0008397111540128
    -0.0013033496277974   14.3149019018383825   -0.1779111638969609
     0.0045697230369152   -0.4551853366518879   14.9149410351872973
   Si   Nb   O    Li
    16     8    56     8
Selective dynamics
Direct
  0.2975194483100267  0.8738554205578950  0.0242048137054383   T   T   T
  0.8116308841609339  0.3750408103552374  0.0283441197816430   T   T   T
  0.0628555034256522  0.0743667694386119  0.0525159953504897   T   T   T
  0.5251911535716189  0.5685646729612799  0.0542402528299917   T   T   T
  0.0250446698239770  0.8410855752092985  0.3403891850268508   T   T   T
  0.5626744963986638  0.3354831540259013  0.3420373274517914   T   T   T
  0.3115176297834594  0.0346875532591611  0.3660265147703399   T   T   T
  0.7975010621096885  0.5358761798944442  0.3704008741425682   T   T   T
  0.3593879191990084  0.3735554785630839  0.5243399232811043   T   T   T
  0.8361991707986860  0.8745525797715388  0.5270438628709186   T   T   T
  0.5904698191300284  0.5740171426258627  0.5528753605833856   T   T   T
  0.1266923321633797  0.0674427318442028  0.5539861924868887   T   T   T
  0.6265468487314010  0.3427431649289048  0.8404356989211692   T   T   T
  0.0908125752639037  0.8359215718325146  0.8417191523847833   T   T   T
  0.3357262994717019  0.5356117882916962  0.8674002486726380   T   T   T
  0.8594527982683644  0.0363080555360469  0.8701249586561772   T   T   T
  0.7897366304822668  0.7686495523603654  0.1356244657989976   T   T   T
  0.2880509797069379  0.2773065290150285  0.1430457237537581   T   T   T
  0.7878544237072660  0.1325116975192984  0.2514730286324109   T   T   T
  0.2898244048911707  0.6409678825297860  0.2589683674921233   T   T   T
  0.8699140565779615  0.2709002121665449  0.6373781632152529   T   T   T
  0.3613387152971157  0.7769141685879077  0.6421871528882903   T   T   T
  0.8611875037269954  0.6331673633459118  0.7522576971441310   T   T   T
  0.3700594779615045  0.1390310655561464  0.7570902834891484   T   T   T
  0.2430072088919246  0.9859603785488176  0.0251924905568472   T   T   T
  0.6543220585453327  0.6696397205797595  0.0412630995636007   T   T   T
  0.2249839672330296  0.1704413541414880  0.0470841048584276   T   T   T
  0.7427433420127727  0.4878366628395696  0.0463088004940460   T   T   T
  0.5940906655925318  0.3049631253548029  0.0560465434354498   T   T   T
  0.0654892018592435  0.8188456556394357  0.0692314312131899   T   T   T
  0.5612188342037143  0.8548067085296012  0.0719224221668284   T   T   T
  0.0820877643340907  0.3682542523961274  0.0761675902168193   T   T   T
  0.9350986521590556  0.0598726494965263  0.1502594152761247   T   T   T
  0.3804657965726719  0.5605755713208538  0.1492293431724150   T   T   T
  0.9847622552629147  0.6657939619932023  0.1778803058831215   T   T   T
  0.5207072030488789  0.1747421822487425  0.1883716775412907   T   T   T
  0.0207582819232570  0.2351288148855133  0.2061006979694398   T   T   T
  0.4845208579950366  0.7438473152679848  0.2167514317408603   T   T   T
  0.8802398692663758  0.8490208797461989  0.2454020587850749   T   T   T
  0.4356174028100668  0.3500390295777223  0.2442001587549356   T   T   T
  0.5818145951640830  0.0415182282179742  0.3182029260373440   T   T   T
  0.0612200307683892  0.5548294488640337  0.3226298808178356   T   T   T
  0.5657496338216532  0.5909849891098347  0.3253717765251380   T   T   T
  0.0937436622520025  0.1046849154652634  0.3382889334794399   T   T   T
  0.2426288016418852  0.9219153552132013  0.3480755797414332   T   T   T
  0.7248794694390313  0.2394064825411490  0.3474167955412000   T   T   T
  0.1544307900367698  0.7400905866311405  0.3534657220486039   T   T   T
  0.7427406981932947  0.4238167435709599  0.3696770069440944   T   T   T
  0.8037341004415453  0.8618532149834834  0.4156383641643728   T   T   T
  0.3378645899236474  0.3301337868809853  0.4191562482455709   T   T   T
  0.3464081994052250  0.0507149364678412  0.4770266529959244   T   T   T
  0.8174972958699200  0.5783960311877365  0.4761041473224310   T   T   T
  0.4114369101224540  0.4853620397928537  0.5244261104230006   T   T   T
  0.9880954112200371  0.1672560738230118  0.5418341041792303   T   T   T
  0.4259010066192488  0.6692126593648169  0.5469348672173169   T   T   T
  0.9081699269211114  0.9872191158252193  0.5471950396467733   T   T   T
  0.0531034953189078  0.8041766077898060  0.5547455769352396   T   T   T
  0.0936219881574232  0.3539285632911202  0.5707256866942672   T   T   T
  0.5650003431564059  0.8655966286346057  0.5732914304277656   T   T   T
  0.5889890892497220  0.3191699811236930  0.5710420676350054   T   T   T
  0.2826394934597189  0.0607590443481953  0.6466392448273837   T   T   T
  0.7146639067554048  0.5594179115377784  0.6511104979631099   T   T   T
  0.6709892938076933  0.1680874269133881  0.6802663504716762   T   T   T
  0.1274719270665940  0.6747600733556425  0.6882799238119759   T   T   T
  0.6277668203743829  0.7354390136576470  0.7060977591231534   T   T   T
  0.1706211972284493  0.2416518528250791  0.7141205276075695   T   T   T
  0.2153428233999648  0.8505657410117067  0.7435428097772245   T   T   T
  0.7825056090132776  0.3492756896540001  0.7477524458155784   T   T   T
  0.0894901770665513  0.0905809354577940  0.8235182140064836   T   T   T
  0.0645051222187476  0.5444576737924081  0.8211676550897948   T   T   T
  0.5935948017355983  0.0559631282628246  0.8238059843498675   T   T   T
  0.5524860218119301  0.6060826895703215  0.8395660087581120   T   T   T
  0.4080859315260170  0.4229534559157315  0.8473590522852490   T   T   T
  0.9259421815085105  0.7407507226600174  0.8475681309854295   T   T   T
  0.4877111670378227  0.2429108417159966  0.8524407262240814   T   T   T
  0.9116145686820261  0.9245165532467681  0.8701552250731766   T   T   T
  0.3176252953216832  0.8314302992244080  0.9185321307743166   T   T   T
  0.8464250562410740  0.3591927182585763  0.9173713099307506   T   T   T
  0.8379589784778574  0.0796409901240338  0.9753580823092065   T   T   T
  0.3038412569191138  0.5482782587518003  0.9788822476851138   T   T   T
  0.0483013804327470  0.5492446099056707  0.0917905970601609   T   T   T
  0.5482920355167380  0.8608489262107071  0.3026299421202268   T   T   T
  0.0390919386373767  0.2265109961823271  0.4166367428641067   T   T   T
  0.1106863928096615  0.6823717410556398  0.4786842565391751   T   T   T
  0.6161538196950218  0.0684271204631628  0.5794814574983391   T   T   T
  0.1160561919872407  0.3413913962205726  0.8150280622858475   T   T   T
  0.6107375312169765  0.7275793738725298  0.9159011922197564   T   T   T
  0.5390167240635080  0.1833788679744046  0.9778243146835095   T   T   T
 
  0.00000000E+00  0.00000000E+00  0.00000000E+00
  0.00000000E+00  0.00000000E+00  0.00000000E+00
  0.00000000E+00  0.00000000E+00  0.00000000E+00
  0.00000000E+00  0.00000000E+00  0.00000000E+00
  0.00000000E+00  0.00000000E+00  0.00000000E+00
  0.00000000E+00  0.00000000E+00  0.00000000E+00
  0.00000000E+00  0.00000000E+00  0.00000000E+00
  0.00000000E+00  0.00000000E+00  0.00000000E+00
  0.00000000E+00  0.00000000E+00  0.00000000E+00
  0.00000000E+00  0.00000000E+00  0.00000000E+00
  0.00000000E+00  0.00000000E+00  0.00000000E+00
  0.00000000E+00  0.00000000E+00  0.00000000E+00
  0.00000000E+00  0.00000000E+00  0.00000000E+00
  0.00000000E+00  0.00000000E+00  0.00000000E+00
  0.00000000E+00  0.00000000E+00  0.00000000E+00
  0.00000000E+00  0.00000000E+00  0.00000000E+00
  0.00000000E+00  0.00000000E+00  0.00000000E+00
  0.00000000E+00  0.00000000E+00  0.00000000E+00
  0.00000000E+00  0.00000000E+00  0.00000000E+00
  0.00000000E+00  0.00000000E+00  0.00000000E+00
  0.00000000E+00  0.00000000E+00  0.00000000E+00
  0.00000000E+00  0.00000000E+00  0.00000000E+00
  0.00000000E+00  0.00000000E+00  0.00000000E+00
  0.00000000E+00  0.00000000E+00  0.00000000E+00
  0.00000000E+00  0.00000000E+00  0.00000000E+00
  0.00000000E+00  0.00000000E+00  0.00000000E+00
  0.00000000E+00  0.00000000E+00  0.00000000E+00
  0.00000000E+00  0.00000000E+00  0.00000000E+00
  0.00000000E+00  0.00000000E+00  0.00000000E+00
  0.00000000E+00  0.00000000E+00  0.00000000E+00
  0.00000000E+00  0.00000000E+00  0.00000000E+00
  0.00000000E+00  0.00000000E+00  0.00000000E+00
  0.00000000E+00  0.00000000E+00  0.00000000E+00
  0.00000000E+00  0.00000000E+00  0.00000000E+00
  0.00000000E+00  0.00000000E+00  0.00000000E+00
  0.00000000E+00  0.00000000E+00  0.00000000E+00
  0.00000000E+00  0.00000000E+00  0.00000000E+00
  0.00000000E+00  0.00000000E+00  0.00000000E+00
  0.00000000E+00  0.00000000E+00  0.00000000E+00
  0.00000000E+00  0.00000000E+00  0.00000000E+00
  0.00000000E+00  0.00000000E+00  0.00000000E+00
  0.00000000E+00  0.00000000E+00  0.00000000E+00
  0.00000000E+00  0.00000000E+00  0.00000000E+00
  0.00000000E+00  0.00000000E+00  0.00000000E+00
  0.00000000E+00  0.00000000E+00  0.00000000E+00
  0.00000000E+00  0.00000000E+00  0.00000000E+00
  0.00000000E+00  0.00000000E+00  0.00000000E+00
  0.00000000E+00  0.00000000E+00  0.00000000E+00
  0.00000000E+00  0.00000000E+00  0.00000000E+00
  0.00000000E+00  0.00000000E+00  0.00000000E+00
  0.00000000E+00  0.00000000E+00  0.00000000E+00
  0.00000000E+00  0.00000000E+00  0.00000000E+00
  0.00000000E+00  0.00000000E+00  0.00000000E+00
  0.00000000E+00  0.00000000E+00  0.00000000E+00
  0.00000000E+00  0.00000000E+00  0.00000000E+00
  0.00000000E+00  0.00000000E+00  0.00000000E+00
  0.00000000E+00  0.00000000E+00  0.00000000E+00
  0.00000000E+00  0.00000000E+00  0.00000000E+00
  0.00000000E+00  0.00000000E+00  0.00000000E+00
  0.00000000E+00  0.00000000E+00  0.00000000E+00
  0.00000000E+00  0.00000000E+00  0.00000000E+00
  0.00000000E+00  0.00000000E+00  0.00000000E+00
  0.00000000E+00  0.00000000E+00  0.00000000E+00
  0.00000000E+00  0.00000000E+00  0.00000000E+00
  0.00000000E+00  0.00000000E+00  0.00000000E+00
  0.00000000E+00  0.00000000E+00  0.00000000E+00
  0.00000000E+00  0.00000000E+00  0.00000000E+00
  0.00000000E+00  0.00000000E+00  0.00000000E+00
  0.00000000E+00  0.00000000E+00  0.00000000E+00
  0.00000000E+00  0.00000000E+00  0.00000000E+00
  0.00000000E+00  0.00000000E+00  0.00000000E+00
  0.00000000E+00  0.00000000E+00  0.00000000E+00
  0.00000000E+00  0.00000000E+00  0.00000000E+00
  0.00000000E+00  0.00000000E+00  0.00000000E+00
  0.00000000E+00  0.00000000E+00  0.00000000E+00
  0.00000000E+00  0.00000000E+00  0.00000000E+00
  0.00000000E+00  0.00000000E+00  0.00000000E+00
  0.00000000E+00  0.00000000E+00  0.00000000E+00
  0.00000000E+00  0.00000000E+00  0.00000000E+00
  0.00000000E+00  0.00000000E+00  0.00000000E+00
  0.00000000E+00  0.00000000E+00  0.00000000E+00
  0.00000000E+00  0.00000000E+00  0.00000000E+00
  0.00000000E+00  0.00000000E+00  0.00000000E+00
  0.00000000E+00  0.00000000E+00  0.00000000E+00
  0.00000000E+00  0.00000000E+00  0.00000000E+00
  0.00000000E+00  0.00000000E+00  0.00000000E+00
  0.00000000E+00  0.00000000E+00  0.00000000E+00
  0.00000000E+00  0.00000000E+00  0.00000000E+00
