Primitive Cell                          
   1.00000000000000     
    13.4798644959685383    0.0027232107230711    0.0085033194542141
    -0.0012768269738260    4.8580881787155228    0.0022583318037370
    -0.0039472755280212   -0.0036395790874327    8.1168672665303543
   P    Ga   O    Li
     8     4    28     4
Selective dynamics
Direct
  0.7322235536554658  0.4176048384826103  0.2236894193131960   T   T   T
  0.2323081403185085  0.0627835494671984  0.2237508599760645   T   T   T
  0.4263034910715149  0.8752891519885608  0.3295878090287303   T   T   T
  0.9264195376981021  0.6044346831355654  0.3293292806986372   T   T   T
  0.6456665224702220  0.9170552061636528  0.7235675243072208   T   T   T
  0.1456342744940997  0.5633981231609937  0.7236756102455359   T   T   T
  0.4514769889973920  0.1041086013063932  0.8292697735179360   T   T   T
  0.9514196687886241  0.3756964668517000  0.8294275217273182   T   T   T
  0.3225046811856913  0.5919585787065813  0.0108825595424378   T   T   T
  0.8224744480238897  0.8882730952836795  0.0108605153357715   T   T   T
  0.5553650556538656  0.3878955168052158  0.5108608867035258   T   T   T
  0.0554511706709206  0.0923469983251053  0.5108749164188424   T   T   T
  0.7377111688341387  0.5921096127595149  0.0672299392643438   T   T   T
  0.2377319070984498  0.8880826458704831  0.0674247728136876   T   T   T
  0.4324250996497412  0.7254954984328208  0.1633772837302203   T   T   T
  0.9325780715480860  0.7541476656608879  0.1630925806512948   T   T   T
  0.7563828075306134  0.1174568700973353  0.1856295195837632   T   T   T
  0.2565004952949366  0.3627731456561065  0.1856210078475797   T   T   T
  0.6312872224338193  0.4686677200841913  0.3063721511392217   T   T   T
  0.1313514013906385  0.0116558207173796  0.3064430074889017   T   T   T
  0.4839709353131525  0.1435150591129570  0.3310851471087872   T   T   T
  0.9838858188444704  0.3358842734963972  0.3309951819974941   T   T   T
  0.3103798692620785  0.9456899489534081  0.3604892747321173   T   T   T
  0.8103997997202939  0.5345947358958512  0.3603878753003187   T   T   T
  0.4534418797126847  0.6812899797093550  0.4722880731878902   T   T   T
  0.9537034848522410  0.7982741161027604  0.4720771307872980   T   T   T
  0.1400288568725188  0.3891323926793788  0.5671715235794323   T   T   T
  0.6400678971997422  0.0915816349060137  0.5671189228446849   T   T   T
  0.4453377794591233  0.2536469781977289  0.6630072630017168   T   T   T
  0.9453508642740189  0.2258078522289324  0.6632299424458097   T   T   T
  0.6215270883671096  0.6169143983507794  0.6854801191577238   T   T   T
  0.1215644605551134  0.8636279414330801  0.6856870832201025   T   T   T
  0.2464557439782809  0.5113604395634681  0.8064783405392220   T   T   T
  0.7465069225213412  0.9685774761617196  0.8064093237141066   T   T   T
  0.3938525460836928  0.8357244375452098  0.8311209382223836   T   T   T
  0.8937456048630281  0.6439515996315848  0.8310825225749952   T   T   T
  0.5674560564887656  0.0340715004351182  0.8602428536687796   T   T   T
  0.0674063868490506  0.4463001946220260  0.8602969197664976   T   T   T
  0.4242546664595181  0.2981865244994637  0.9719261907840320   T   T   T
  0.9242937347215161  0.1815755795326552  0.9721290748067730   T   T   T
  0.5165888369503833  0.3926832751300822  0.1505565678825675   T   T   T
  0.0167159541331614  0.0870211216102703  0.1505193339725324   T   T   T
  0.3611229578675363  0.5863926811616480  0.6505956171150373   T   T   T
  0.8612466671944432  0.8929670184111345  0.6504326225834305   T   T   T
 
  0.00000000E+00  0.00000000E+00  0.00000000E+00
  0.00000000E+00  0.00000000E+00  0.00000000E+00
  0.00000000E+00  0.00000000E+00  0.00000000E+00
  0.00000000E+00  0.00000000E+00  0.00000000E+00
  0.00000000E+00  0.00000000E+00  0.00000000E+00
  0.00000000E+00  0.00000000E+00  0.00000000E+00
  0.00000000E+00  0.00000000E+00  0.00000000E+00
  0.00000000E+00  0.00000000E+00  0.00000000E+00
  0.00000000E+00  0.00000000E+00  0.00000000E+00
  0.00000000E+00  0.00000000E+00  0.00000000E+00
  0.00000000E+00  0.00000000E+00  0.00000000E+00
  0.00000000E+00  0.00000000E+00  0.00000000E+00
  0.00000000E+00  0.00000000E+00  0.00000000E+00
  0.00000000E+00  0.00000000E+00  0.00000000E+00
  0.00000000E+00  0.00000000E+00  0.00000000E+00
  0.00000000E+00  0.00000000E+00  0.00000000E+00
  0.00000000E+00  0.00000000E+00  0.00000000E+00
  0.00000000E+00  0.00000000E+00  0.00000000E+00
  0.00000000E+00  0.00000000E+00  0.00000000E+00
  0.00000000E+00  0.00000000E+00  0.00000000E+00
  0.00000000E+00  0.00000000E+00  0.00000000E+00
  0.00000000E+00  0.00000000E+00  0.00000000E+00
  0.00000000E+00  0.00000000E+00  0.00000000E+00
  0.00000000E+00  0.00000000E+00  0.00000000E+00
  0.00000000E+00  0.00000000E+00  0.00000000E+00
  0.00000000E+00  0.00000000E+00  0.00000000E+00
  0.00000000E+00  0.00000000E+00  0.00000000E+00
  0.00000000E+00  0.00000000E+00  0.00000000E+00
  0.00000000E+00  0.00000000E+00  0.00000000E+00
  0.00000000E+00  0.00000000E+00  0.00000000E+00
  0.00000000E+00  0.00000000E+00  0.00000000E+00
  0.00000000E+00  0.00000000E+00  0.00000000E+00
  0.00000000E+00  0.00000000E+00  0.00000000E+00
  0.00000000E+00  0.00000000E+00  0.00000000E+00
  0.00000000E+00  0.00000000E+00  0.00000000E+00
  0.00000000E+00  0.00000000E+00  0.00000000E+00
  0.00000000E+00  0.00000000E+00  0.00000000E+00
  0.00000000E+00  0.00000000E+00  0.00000000E+00
  0.00000000E+00  0.00000000E+00  0.00000000E+00
  0.00000000E+00  0.00000000E+00  0.00000000E+00
  0.00000000E+00  0.00000000E+00  0.00000000E+00
  0.00000000E+00  0.00000000E+00  0.00000000E+00
  0.00000000E+00  0.00000000E+00  0.00000000E+00
  0.00000000E+00  0.00000000E+00  0.00000000E+00
