Primitive Cell                          
   1.00000000000000     
    14.7934319064229278    0.0565343350445207   -0.0265712662398225
    -0.2413483968472077    8.4714336751553763   -0.0378138499925547
     0.0352237197561204    0.0503503428112635    8.3270751075310461
   Ta   P    O    Li
    12     8    52     4
Selective dynamics
Direct
  0.5467297021954352  0.7362034500308354  0.2208133287071377   T   T   T
  0.8187526040823414  0.2224161364848882  0.2322812916835986   T   T   T
  0.9360721320000991  0.8446829321819322  0.3101086728630307   T   T   T
  0.4349102522862438  0.3527398947654348  0.3183087182866089   T   T   T
  0.3228552748412525  0.7362054857058382  0.4072890763192447   T   T   T
  0.0392896524676516  0.2328428664782436  0.4152361635089932   T   T   T
  0.8238358083035564  0.7616912020639646  0.7180170165238096   T   T   T
  0.5468591504831792  0.2620447088796496  0.7221949307862374   T   T   T
  0.4379310056485153  0.6422721728326479  0.8096653327866292   T   T   T
  0.9305137702704585  0.1501705811724463  0.8239821801976106   T   T   T
  0.0484010500511474  0.7744145769913757  0.8953263377465817   T   T   T
  0.3216966040409872  0.2637876109631137  0.9101026333185729   T   T   T
  0.2696006580247712  0.8674565486471479  0.0147356150475986   T   T   T
  0.1037670133589259  0.3760765142059910  0.0252199035280753   T   T   T
  0.7654002511030882  0.6225976929149013  0.1083902016610168   T   T   T
  0.5992178401871016  0.1325909638216203  0.1141725646313603   T   T   T
  0.0980689754852477  0.6174690598308175  0.5175566815232102   T   T   T
  0.2642611994953796  0.1192904140513988  0.5191505607063078   T   T   T
  0.6031254744641927  0.8779762041620387  0.6110911342020415   T   T   T
  0.7700942524994119  0.3784448020230897  0.6121231690883349   T   T   T
  0.4968899252543650  0.6778748117304190  0.0184331882778324   T   T   T
  0.8538663617588895  0.1969795783999615  0.0150320782643405   T   T   T
  0.3024167299083729  0.0419168646859802  0.0289185182566527   T   T   T
  0.5618344907910640  0.9608076026972441  0.0965655832558738   T   T   T
  0.0110653600513331  0.8014752402256349  0.1123333345451627   T   T   T
  0.3695821259249783  0.3223938147862455  0.1124077256854648   T   T   T
  0.7664306210454797  0.4410344458291320  0.1275080020723038   T   T   T
  0.2538371964344250  0.7881463211555868  0.1810681501305709   T   T   T
  0.6754746201438167  0.6871362656107038  0.1757167133851567   T   T   T
  0.8453768868479585  0.6962934338015430  0.2033282090343533   T   T   T
  0.1106770991745876  0.3391568134720657  0.2090548430957568   T   T   T
  0.5263499729439616  0.2203839265669671  0.2090138963597923   T   T   T
  0.6892653334009253  0.1381927534156304  0.2041468153402164   T   T   T
  0.8519155578882120  0.0132585380693797  0.2759352169512326   T   T   T
  0.4264161149626204  0.8097958988631007  0.2962800166769242   T   T   T
  0.9351171638032199  0.3037319919246997  0.3030717891034342   T   T   T
  0.5198348625478317  0.5311967681122880  0.3014787849688432   T   T   T
  0.0222465083468606  0.0221098033009994  0.3437127046369923   T   T   T
  0.3458575052737061  0.5170717690215625  0.3516323107133204   T   T   T
  0.0353594099528536  0.6966084270528015  0.3948041910822226   T   T   T
  0.3316457528130456  0.2056291999690529  0.4049037975797987   T   T   T
  0.1931128827552016  0.6229277724717903  0.4345046489628572   T   T   T
  0.5889458036416286  0.8348286898760193  0.4334016384272559   T   T   T
  0.7731302419490760  0.2968544146591299  0.4489020144757134   T   T   T
  0.2681962467994410  0.9407754856322086  0.4867922028587088   T   T   T
  0.1709248047910918  0.1849748308818278  0.4727328603225232   T   T   T
  0.8848762201754923  0.8116663597732696  0.5189116352944225   T   T   T
  0.4893254128506257  0.2923852898470187  0.5224973606390790   T   T   T
  0.0695482940166912  0.4434421946960327  0.5323284583178705   T   T   T
  0.7926790667305639  0.5549522759138625  0.5996930061444417   T   T   T
  0.3748101548949307  0.7030815639359815  0.6090271821600908   T   T   T
  0.9802470855901220  0.1856843429361845  0.6121263871697167   T   T   T
  0.5943400876033564  0.0569677837469840  0.6369738524954869   T   T   T
  0.6979532039135279  0.8269450330051811  0.6604136585773972   T   T   T
  0.1018534517122589  0.7020801278298094  0.6785030840665485   T   T   T
  0.6745629775247508  0.3540023297929906  0.6855931931029744   T   T   T
  0.2817953175717491  0.1577903566026890  0.6963271535993769   T   T   T
  0.5312323692841829  0.7990043187554861  0.7216759837845572   T   T   T
  0.8347035384722545  0.3063189136696778  0.7361911890803228   T   T   T
  0.5200114408813334  0.4769830193134936  0.7739521811140406   T   T   T
  0.8472032054518692  0.9745864182896469  0.7886319852826063   T   T   T
  0.9360767283044851  0.6939701778815603  0.8151271534765243   T   T   T
  0.3481649764479329  0.4677348121797280  0.8285476709067083   T   T   T
  0.4435824988124182  0.1803128562219669  0.8417045082841952   T   T   T
  0.0179482449842538  0.9855019884441774  0.8518780805487367   T   T   T
  0.1797554607327640  0.8526654088223964  0.9253377611464373   T   T   T
  0.3482526405196964  0.7915583862527740  0.9211688972173704   T   T   T
  0.7690015577714675  0.6664535407973133  0.9284387857446532   T   T   T
  0.0220610381465747  0.2955593207133944  0.9423771392105422   T   T   T
  0.1925108460626603  0.3133862470547015  0.9506585252739228   T   T   T
  0.6160932378385695  0.2098548889750234  0.9473840400116913   T   T   T
  0.1000104605007905  0.5568132753488086  0.0033626055328426   T   T   T
  0.4413596306830456  0.9808622401760942  0.9791008163725152   T   T   T
  0.1254285030934028  0.6963732027846703  0.2073420738434777   T   T   T
  0.2286238949784476  0.3912683375672330  0.3410317739813493   T   T   T
  0.7402358062418628  0.3147741616534816  0.9199198287338248   T   T   T
 
  0.00000000E+00  0.00000000E+00  0.00000000E+00
  0.00000000E+00  0.00000000E+00  0.00000000E+00
  0.00000000E+00  0.00000000E+00  0.00000000E+00
  0.00000000E+00  0.00000000E+00  0.00000000E+00
  0.00000000E+00  0.00000000E+00  0.00000000E+00
  0.00000000E+00  0.00000000E+00  0.00000000E+00
  0.00000000E+00  0.00000000E+00  0.00000000E+00
  0.00000000E+00  0.00000000E+00  0.00000000E+00
  0.00000000E+00  0.00000000E+00  0.00000000E+00
  0.00000000E+00  0.00000000E+00  0.00000000E+00
  0.00000000E+00  0.00000000E+00  0.00000000E+00
  0.00000000E+00  0.00000000E+00  0.00000000E+00
  0.00000000E+00  0.00000000E+00  0.00000000E+00
  0.00000000E+00  0.00000000E+00  0.00000000E+00
  0.00000000E+00  0.00000000E+00  0.00000000E+00
  0.00000000E+00  0.00000000E+00  0.00000000E+00
  0.00000000E+00  0.00000000E+00  0.00000000E+00
  0.00000000E+00  0.00000000E+00  0.00000000E+00
  0.00000000E+00  0.00000000E+00  0.00000000E+00
  0.00000000E+00  0.00000000E+00  0.00000000E+00
  0.00000000E+00  0.00000000E+00  0.00000000E+00
  0.00000000E+00  0.00000000E+00  0.00000000E+00
  0.00000000E+00  0.00000000E+00  0.00000000E+00
  0.00000000E+00  0.00000000E+00  0.00000000E+00
  0.00000000E+00  0.00000000E+00  0.00000000E+00
  0.00000000E+00  0.00000000E+00  0.00000000E+00
  0.00000000E+00  0.00000000E+00  0.00000000E+00
  0.00000000E+00  0.00000000E+00  0.00000000E+00
  0.00000000E+00  0.00000000E+00  0.00000000E+00
  0.00000000E+00  0.00000000E+00  0.00000000E+00
  0.00000000E+00  0.00000000E+00  0.00000000E+00
  0.00000000E+00  0.00000000E+00  0.00000000E+00
  0.00000000E+00  0.00000000E+00  0.00000000E+00
  0.00000000E+00  0.00000000E+00  0.00000000E+00
  0.00000000E+00  0.00000000E+00  0.00000000E+00
  0.00000000E+00  0.00000000E+00  0.00000000E+00
  0.00000000E+00  0.00000000E+00  0.00000000E+00
  0.00000000E+00  0.00000000E+00  0.00000000E+00
  0.00000000E+00  0.00000000E+00  0.00000000E+00
  0.00000000E+00  0.00000000E+00  0.00000000E+00
  0.00000000E+00  0.00000000E+00  0.00000000E+00
  0.00000000E+00  0.00000000E+00  0.00000000E+00
  0.00000000E+00  0.00000000E+00  0.00000000E+00
  0.00000000E+00  0.00000000E+00  0.00000000E+00
  0.00000000E+00  0.00000000E+00  0.00000000E+00
  0.00000000E+00  0.00000000E+00  0.00000000E+00
  0.00000000E+00  0.00000000E+00  0.00000000E+00
  0.00000000E+00  0.00000000E+00  0.00000000E+00
  0.00000000E+00  0.00000000E+00  0.00000000E+00
  0.00000000E+00  0.00000000E+00  0.00000000E+00
  0.00000000E+00  0.00000000E+00  0.00000000E+00
  0.00000000E+00  0.00000000E+00  0.00000000E+00
  0.00000000E+00  0.00000000E+00  0.00000000E+00
  0.00000000E+00  0.00000000E+00  0.00000000E+00
  0.00000000E+00  0.00000000E+00  0.00000000E+00
  0.00000000E+00  0.00000000E+00  0.00000000E+00
  0.00000000E+00  0.00000000E+00  0.00000000E+00
  0.00000000E+00  0.00000000E+00  0.00000000E+00
  0.00000000E+00  0.00000000E+00  0.00000000E+00
  0.00000000E+00  0.00000000E+00  0.00000000E+00
  0.00000000E+00  0.00000000E+00  0.00000000E+00
  0.00000000E+00  0.00000000E+00  0.00000000E+00
  0.00000000E+00  0.00000000E+00  0.00000000E+00
  0.00000000E+00  0.00000000E+00  0.00000000E+00
  0.00000000E+00  0.00000000E+00  0.00000000E+00
  0.00000000E+00  0.00000000E+00  0.00000000E+00
  0.00000000E+00  0.00000000E+00  0.00000000E+00
  0.00000000E+00  0.00000000E+00  0.00000000E+00
  0.00000000E+00  0.00000000E+00  0.00000000E+00
  0.00000000E+00  0.00000000E+00  0.00000000E+00
  0.00000000E+00  0.00000000E+00  0.00000000E+00
  0.00000000E+00  0.00000000E+00  0.00000000E+00
  0.00000000E+00  0.00000000E+00  0.00000000E+00
  0.00000000E+00  0.00000000E+00  0.00000000E+00
  0.00000000E+00  0.00000000E+00  0.00000000E+00
  0.00000000E+00  0.00000000E+00  0.00000000E+00
