Primitive Cell                          
   1.00000000000000     
    10.5739629996957358    0.0293783447015493   -0.0359855139192134
     0.0764507241978902   10.6036001875582322   -0.0443328941086851
    -0.1965013915940139    0.1561512929304325   11.3037830425489130
   Nb   P    O    Li
    16     8    64     8
Selective dynamics
Direct
  0.4349577727062339  0.6010857071616584  0.1239004424228796   T   T   T
  0.6484276522571975  0.9916309116154736  0.1341116968814191   T   T   T
  0.1343062792323124  0.9918782690432337  0.2192416188093134   T   T   T
  0.9286315155203511  0.6046979045302763  0.2244680228319211   T   T   T
  0.2389939757335213  0.6873828128324746  0.3701865114971667   T   T   T
  0.8452441108702260  0.9006480034951068  0.3951919081262716   T   T   T
  0.2542919054492927  0.1985537490411247  0.4534177442711069   T   T   T
  0.8555293862675910  0.4110986585367158  0.4807112205107629   T   T   T
  0.9647774665721158  0.1079921348585842  0.6258631141016906   T   T   T
  0.1610781074902263  0.4926772058799287  0.6295909971968356   T   T   T
  0.4447692196459911  0.0996302374909419  0.7167428322524003   T   T   T
  0.6559924615421338  0.4905626922136435  0.7266467131947820   T   T   T
  0.7550609267488468  0.1757436894414255  0.8747532688935067   T   T   T
  0.3589091026413200  0.3909112455044550  0.8801212998826173   T   T   T
  0.7334447765970111  0.6965740495143464  0.9701887828338940   T   T   T
  0.3410249857131049  0.9157638283141623  0.9729899935975581   T   T   T
  0.0466999649041853  0.7806274735452945  0.0118185923346132   T   T   T
  0.5717985860411332  0.3026499388581527  0.0877522138090114   T   T   T
  0.0250699302847792  0.2889004997084044  0.2600405112781132   T   T   T
  0.5540632985620348  0.7827370425749507  0.3397007900512534   T   T   T
  0.5411289695605888  0.3117606123184231  0.5097722170422614   T   T   T
  0.0676141164817565  0.8029632621664078  0.5897954868774278   T   T   T
  0.5252478484564236  0.7915230105812867  0.7603420354840082   T   T   T
  0.0482937765869949  0.3074322000970895  0.8364441461879082   T   T   T
  0.4547897737125766  0.2799454297328907  0.0056959959313900   T   T   T
  0.6910359203644063  0.3197634314172717  0.0112903854395725   T   T   T
  0.5817285273503785  0.6281802463598680  0.0166942648747295   T   T   T
  0.7558987798963628  0.0760447306990031  0.0153376177973783   T   T   T
  0.3267929114520101  0.5008135100601976  0.0254109491011008   T   T   T
  0.4972284832604359  0.9787394467016881  0.0289581316853642   T   T   T
  0.2414072319174068  0.0101191842665642  0.0750790720318690   T   T   T
  0.8267321311076969  0.5801494062950354  0.0785975228741691   T   T   T
  0.3725019661313311  0.7570738384133193  0.0787134714487792   T   T   T
  0.7194964595250113  0.8393760266534116  0.0804041486990812   T   T   T
  0.0644935258483059  0.6545793458462583  0.0825870479363076   T   T   T
  0.0286341885812362  0.8905042413434785  0.0992685181947763   T   T   T
  0.5480500233829844  0.4219362972590091  0.1633231181539543   T   T   T
  0.0067896534507881  0.4036254681424438  0.1722796785094118   T   T   T
  0.5950788168701209  0.1868069180540530  0.1722877635310596   T   T   T
  0.0495435080580080  0.1682728868318861  0.1875039741356019   T   T   T
  0.5304613419643900  0.8954813032270081  0.2547893913346684   T   T   T
  0.8704667479679244  0.7582134586827181  0.2668716883391937   T   T   T
  0.3336276396235220  0.5844184943933328  0.2668849616136200   T   T   T
  0.5707829114226612  0.6591043927075333  0.2675535859006644   T   T   T
  0.2211048453456925  0.8408147099117400  0.2758968517715275   T   T   T
  0.7505815843013792  0.0123837654744179  0.2801929520955753   T   T   T
  0.2536677467445827  0.0865141796186819  0.3249299901957556   T   T   T
  0.0843336917510058  0.6172886789889773  0.3262248875995226   T   T   T
  0.8231716975003209  0.5099955904708153  0.3307246066154761   T   T   T
  0.9986887600851588  0.9648993674560558  0.3299728336545797   T   T   T
  0.9045551218997190  0.2741679697248927  0.3354618928809074   T   T   T
  0.1410165028463410  0.3133415385156582  0.3430219024636898   T   T   T
  0.6753645065729472  0.8068692272303295  0.4164961817718122   T   T   T
  0.4395695837636993  0.7647525941200115  0.4243681427465091   T   T   T
  0.6552488280770348  0.3296528530389864  0.4252309861566133   T   T   T
  0.4204561391623187  0.2881919943228795  0.4302945518998982   T   T   T
  0.9509753909627818  0.7797849587713301  0.5068418826212451   T   T   T
  0.1858732455718837  0.8280014496868304  0.5138978871984534   T   T   T
  0.0085567619361768  0.4825181918887438  0.5167272187868690   T   T   T
  0.0965265852721657  0.1250473178283897  0.5201469765980065   T   T   T
  0.2678023068110775  0.5880963051716535  0.5176301016339835   T   T   T
  0.8422802678195964  0.0120884677982360  0.5248191231833133   T   T   T
  0.3433638086900217  0.0844931602490746  0.5675707062264195   T   T   T
  0.2197724172150970  0.3397337967076623  0.5776596176250308   T   T   T
  0.5210649149423929  0.4350828911584301  0.5808870499474637   T   T   T
  0.8775872386108148  0.2586123165622425  0.5795914761618590   T   T   T
  0.7588074620294307  0.5097926323561737  0.5837022910878602   T   T   T
  0.5623324385124064  0.1988194993809813  0.5939757850220175   T   T   T
  0.0345775930883576  0.9177286324202427  0.6702896049098328   T   T   T
  0.0943631284612323  0.6876537855847715  0.6724090300520871   T   T   T
  0.4998586591509451  0.9079076261437393  0.6759026879149843   T   T   T
  0.5469153532712383  0.6725153731291584  0.6843749200800175   T   T   T
  0.0299102492194550  0.4226632657676959  0.7523039384201411   T   T   T
  0.0717440792743247  0.1890417844789098  0.7599112380020401   T   T   T
  0.3687790839487519  0.2537464835871361  0.7696689049498389   T   T   T
  0.7174542748856965  0.3331075503330894  0.7687770573488635   T   T   T
  0.2664981801314710  0.5131577594357353  0.7713952380388207   T   T   T
  0.8537462911810110  0.0718084611367544  0.7774976833401013   T   T   T
  0.5950987545058766  0.1151795306587644  0.8183747192277409   T   T   T
  0.3359289316526315  0.0160563253174786  0.8303415955032065   T   T   T
  0.7562375685923968  0.5870817867250508  0.8313587028716611   T   T   T
  0.5075202039473155  0.4660111802791107  0.8328984187233814   T   T   T
  0.4062942111665464  0.7743371968547308  0.8377126142936149   T   T   T
  0.6441348992394893  0.8151769023225981  0.8402819452877353   T   T   T
  0.9272554871723671  0.2868709729298615  0.9108310836855011   T   T   T
  0.1623425641690304  0.3334215624965822  0.9221034565683226   T   T   T
  0.9248662735632465  0.7750968298967535  0.9313790442468388   T   T   T
  0.1634814702277225  0.8054300430057140  0.9337568349458465   T   T   T
  0.8572741033567937  0.3977595682126491  0.0360874332838108   T   T   T
  0.1448818913903054  0.4655312179919378  0.0612303587420300   T   T   T
  0.6395836134921637  0.4860543490140330  0.3011063721300928   T   T   T
  0.7284504775014824  0.1956388188857261  0.3149813793631395   T   T   T
  0.3637965161890548  0.9007820057529017  0.5320302599135616   T   T   T
  0.4515286417813869  0.6085197207527031  0.5486258942386186   T   T   T
  0.9104844285464324  0.8943454541568698  0.8002436893856668   T   T   T
  0.2333701956354233  0.6968443109905067  0.8078136136017307   T   T   T
 
  0.00000000E+00  0.00000000E+00  0.00000000E+00
  0.00000000E+00  0.00000000E+00  0.00000000E+00
  0.00000000E+00  0.00000000E+00  0.00000000E+00
  0.00000000E+00  0.00000000E+00  0.00000000E+00
  0.00000000E+00  0.00000000E+00  0.00000000E+00
  0.00000000E+00  0.00000000E+00  0.00000000E+00
  0.00000000E+00  0.00000000E+00  0.00000000E+00
  0.00000000E+00  0.00000000E+00  0.00000000E+00
  0.00000000E+00  0.00000000E+00  0.00000000E+00
  0.00000000E+00  0.00000000E+00  0.00000000E+00
  0.00000000E+00  0.00000000E+00  0.00000000E+00
  0.00000000E+00  0.00000000E+00  0.00000000E+00
  0.00000000E+00  0.00000000E+00  0.00000000E+00
  0.00000000E+00  0.00000000E+00  0.00000000E+00
  0.00000000E+00  0.00000000E+00  0.00000000E+00
  0.00000000E+00  0.00000000E+00  0.00000000E+00
  0.00000000E+00  0.00000000E+00  0.00000000E+00
  0.00000000E+00  0.00000000E+00  0.00000000E+00
  0.00000000E+00  0.00000000E+00  0.00000000E+00
  0.00000000E+00  0.00000000E+00  0.00000000E+00
  0.00000000E+00  0.00000000E+00  0.00000000E+00
  0.00000000E+00  0.00000000E+00  0.00000000E+00
  0.00000000E+00  0.00000000E+00  0.00000000E+00
  0.00000000E+00  0.00000000E+00  0.00000000E+00
  0.00000000E+00  0.00000000E+00  0.00000000E+00
  0.00000000E+00  0.00000000E+00  0.00000000E+00
  0.00000000E+00  0.00000000E+00  0.00000000E+00
  0.00000000E+00  0.00000000E+00  0.00000000E+00
  0.00000000E+00  0.00000000E+00  0.00000000E+00
  0.00000000E+00  0.00000000E+00  0.00000000E+00
  0.00000000E+00  0.00000000E+00  0.00000000E+00
  0.00000000E+00  0.00000000E+00  0.00000000E+00
  0.00000000E+00  0.00000000E+00  0.00000000E+00
  0.00000000E+00  0.00000000E+00  0.00000000E+00
  0.00000000E+00  0.00000000E+00  0.00000000E+00
  0.00000000E+00  0.00000000E+00  0.00000000E+00
  0.00000000E+00  0.00000000E+00  0.00000000E+00
  0.00000000E+00  0.00000000E+00  0.00000000E+00
  0.00000000E+00  0.00000000E+00  0.00000000E+00
  0.00000000E+00  0.00000000E+00  0.00000000E+00
  0.00000000E+00  0.00000000E+00  0.00000000E+00
  0.00000000E+00  0.00000000E+00  0.00000000E+00
  0.00000000E+00  0.00000000E+00  0.00000000E+00
  0.00000000E+00  0.00000000E+00  0.00000000E+00
  0.00000000E+00  0.00000000E+00  0.00000000E+00
  0.00000000E+00  0.00000000E+00  0.00000000E+00
  0.00000000E+00  0.00000000E+00  0.00000000E+00
  0.00000000E+00  0.00000000E+00  0.00000000E+00
  0.00000000E+00  0.00000000E+00  0.00000000E+00
  0.00000000E+00  0.00000000E+00  0.00000000E+00
  0.00000000E+00  0.00000000E+00  0.00000000E+00
  0.00000000E+00  0.00000000E+00  0.00000000E+00
  0.00000000E+00  0.00000000E+00  0.00000000E+00
  0.00000000E+00  0.00000000E+00  0.00000000E+00
  0.00000000E+00  0.00000000E+00  0.00000000E+00
  0.00000000E+00  0.00000000E+00  0.00000000E+00
  0.00000000E+00  0.00000000E+00  0.00000000E+00
  0.00000000E+00  0.00000000E+00  0.00000000E+00
  0.00000000E+00  0.00000000E+00  0.00000000E+00
  0.00000000E+00  0.00000000E+00  0.00000000E+00
  0.00000000E+00  0.00000000E+00  0.00000000E+00
  0.00000000E+00  0.00000000E+00  0.00000000E+00
  0.00000000E+00  0.00000000E+00  0.00000000E+00
  0.00000000E+00  0.00000000E+00  0.00000000E+00
  0.00000000E+00  0.00000000E+00  0.00000000E+00
  0.00000000E+00  0.00000000E+00  0.00000000E+00
  0.00000000E+00  0.00000000E+00  0.00000000E+00
  0.00000000E+00  0.00000000E+00  0.00000000E+00
  0.00000000E+00  0.00000000E+00  0.00000000E+00
  0.00000000E+00  0.00000000E+00  0.00000000E+00
  0.00000000E+00  0.00000000E+00  0.00000000E+00
  0.00000000E+00  0.00000000E+00  0.00000000E+00
  0.00000000E+00  0.00000000E+00  0.00000000E+00
  0.00000000E+00  0.00000000E+00  0.00000000E+00
  0.00000000E+00  0.00000000E+00  0.00000000E+00
  0.00000000E+00  0.00000000E+00  0.00000000E+00
  0.00000000E+00  0.00000000E+00  0.00000000E+00
  0.00000000E+00  0.00000000E+00  0.00000000E+00
  0.00000000E+00  0.00000000E+00  0.00000000E+00
  0.00000000E+00  0.00000000E+00  0.00000000E+00
  0.00000000E+00  0.00000000E+00  0.00000000E+00
  0.00000000E+00  0.00000000E+00  0.00000000E+00
  0.00000000E+00  0.00000000E+00  0.00000000E+00
  0.00000000E+00  0.00000000E+00  0.00000000E+00
  0.00000000E+00  0.00000000E+00  0.00000000E+00
  0.00000000E+00  0.00000000E+00  0.00000000E+00
  0.00000000E+00  0.00000000E+00  0.00000000E+00
  0.00000000E+00  0.00000000E+00  0.00000000E+00
  0.00000000E+00  0.00000000E+00  0.00000000E+00
  0.00000000E+00  0.00000000E+00  0.00000000E+00
  0.00000000E+00  0.00000000E+00  0.00000000E+00
  0.00000000E+00  0.00000000E+00  0.00000000E+00
  0.00000000E+00  0.00000000E+00  0.00000000E+00
  0.00000000E+00  0.00000000E+00  0.00000000E+00
  0.00000000E+00  0.00000000E+00  0.00000000E+00
  0.00000000E+00  0.00000000E+00  0.00000000E+00
