Primitive Cell                          
   1.00000000000000     
    10.6084227560182196   -0.0141194281006256    0.0001835510319462
    -5.2589626230077835    9.2249505413434640   -0.0199690986599150
     0.0573497483645494    0.1279936981899669    9.0002555126331583
   Si   Ta   O    Li
    12     6    42     6
Selective dynamics
Direct
  0.0061555355651777  0.7754619988713713  0.0390444861610391   T   T   T
  0.5033154505631927  0.0747747437489537  0.0654422567331636   T   T   T
  0.7505251945447426  0.7642885689689223  0.2042779225920270   T   T   T
  0.0610863245682722  0.5695176600826102  0.2291958989203735   T   T   T
  0.7424729520348734  0.0085838992157221  0.3782055126840262   T   T   T
  0.5553943480004691  0.4912729625610908  0.4093740367961161   T   T   T
  0.9811612416976772  0.2505125236466341  0.5473200182555829   T   T   T
  0.4832381609226672  0.9365320963197092  0.5719416247833138   T   T   T
  0.2351824447958890  0.2645135741520548  0.7069945233795139   T   T   T
  0.9272606783789499  0.4474471038379448  0.7424833479369681   T   T   T
  0.2451433059379511  0.0225045712937444  0.8712490988738608   T   T   T
  0.4310303070870631  0.5179101438476579  0.9048904835244329   T   T   T
  0.8721890823631355  0.2425718100746224  0.0678057971872050   T   T   T
  0.2353394264615716  0.3810044270209119  0.2485051656262414   T   T   T
  0.3559747949752179  0.1341957868898760  0.4002601600117117   T   T   T
  0.1265725954744710  0.7737577802110565  0.5692251538623125   T   T   T
  0.7571928140235045  0.6421592144586867  0.7365816589834893   T   T   T
  0.6311151420585830  0.8806336635676857  0.8959111031778590   T   T   T
  0.1363621691926795  0.9449781200731593  0.0161594570630257   T   T   T
  0.5030219265711580  0.9216954779272655  0.0433476542607991   T   T   T
  0.6609966262914142  0.2259879300787091  0.0479158874511327   T   T   T
  0.3532373239116424  0.4394693792216060  0.0618717173533199   T   T   T
  0.6660694569463814  0.7751418927417362  0.0640589287017832   T   T   T
  0.0847045558636097  0.6836875156653051  0.0896810703794273   T   T   T
  0.0521003676726508  0.2547982184085811  0.1164861846098546   T   T   T
  0.9135839154615866  0.7827509871921663  0.1810879578177094   T   T   T
  0.9102410365211355  0.4167376628671988  0.2022584090255108   T   T   T
  0.2079806838183700  0.5565866044158412  0.2108610993593345   T   T   T
  0.4282069672188271  0.0786359859962431  0.2232718957983195   T   T   T
  0.7623418607391201  0.1283759204251567  0.2534090288741950   T   T   T
  0.2495364082181339  0.2041140070859910  0.2662994317504044   T   T   T
  0.6789041471979829  0.6060986537520989  0.2897689958661118   T   T   T
  0.7866656743516032  0.8914440602325726  0.3208949379127475   T   T   T
  0.4026852645898629  0.4878324606428777  0.3747386403410502   T   T   T
  0.5443820175170799  0.3349094708723896  0.3771496184846939   T   T   T
  0.0528763810302664  0.6434663703944281  0.3864548009246036   T   T   T
  0.0945665890777150  0.3307790272605828  0.4105034759179560   T   T   T
  0.1926319861480081  0.9402570747430872  0.4368016429757873   T   T   T
  0.5760902112170783  0.9154431579871130  0.4388202960404826   T   T   T
  0.8517554185319156  0.0884193304983043  0.5141437419811226   T   T   T
  0.4704999145588644  0.0798808114621394  0.5331781819197943   T   T   T
  0.3052132939959904  0.2227134356049518  0.5693932602046630   T   T   T
  0.6230759455125607  0.5571103966621394  0.5708151486340043   T   T   T
  0.3227153530107998  0.7875081824967651  0.5749557648232013   T   T   T
  0.9226766537365805  0.7280913013309203  0.5924154703369524   T   T   T
  0.9037488372854554  0.3422073517489252  0.6009248220830727   T   T   T
  0.0710746483433624  0.2323624552128862  0.6832350717380606   T   T   T
  0.0794880894579748  0.5994914783055094  0.7079904415245721   T   T   T
  0.5611354926885639  0.9470888929898607  0.7318457218932579   T   T   T
  0.1925189193405146  0.9093135270145822  0.7379064268926854   T   T   T
  0.3256451656766117  0.4347573939401315  0.7597608092386849   T   T   T
  0.7824147190635031  0.4639049618849072  0.7557827482049149   T   T   T
  0.7211832252594519  0.8019948223864546  0.7660782780874271   T   T   T
  0.2233737577116841  0.1640841957773205  0.8524356743700992   T   T   T
  0.5837322373491958  0.5166990412907140  0.8787395205819095   T   T   T
  0.4352688246281673  0.6759193004643578  0.8911569532631063   T   T   T
  0.9015573456128294  0.7163231096156721  0.8989340223954869   T   T   T
  0.9390027109906072  0.3707057453626419  0.8966479207093485   T   T   T
  0.4126151708503087  0.0898637422637094  0.9228913183573155   T   T   T
  0.7931969141519417  0.0632756102500167  0.9529997131314047   T   T   T
  0.3485482576208838  0.7170304187308361  0.0774453023492683   T   T   T
  0.1297352507773937  0.1224747142782618  0.0800774283259926   T   T   T
  0.6907350033190767  0.2880961875349541  0.2802251025225218   T   T   T
  0.8805370420831125  0.6709062686574612  0.3829265338411290   T   T   T
  0.2855056267335954  0.6235235440628841  0.7167328662644437   T   T   T
  0.6287415654113744  0.3512564989602964  0.9030398034270988   T   T   T
 
  0.00000000E+00  0.00000000E+00  0.00000000E+00
  0.00000000E+00  0.00000000E+00  0.00000000E+00
  0.00000000E+00  0.00000000E+00  0.00000000E+00
  0.00000000E+00  0.00000000E+00  0.00000000E+00
  0.00000000E+00  0.00000000E+00  0.00000000E+00
  0.00000000E+00  0.00000000E+00  0.00000000E+00
  0.00000000E+00  0.00000000E+00  0.00000000E+00
  0.00000000E+00  0.00000000E+00  0.00000000E+00
  0.00000000E+00  0.00000000E+00  0.00000000E+00
  0.00000000E+00  0.00000000E+00  0.00000000E+00
  0.00000000E+00  0.00000000E+00  0.00000000E+00
  0.00000000E+00  0.00000000E+00  0.00000000E+00
  0.00000000E+00  0.00000000E+00  0.00000000E+00
  0.00000000E+00  0.00000000E+00  0.00000000E+00
  0.00000000E+00  0.00000000E+00  0.00000000E+00
  0.00000000E+00  0.00000000E+00  0.00000000E+00
  0.00000000E+00  0.00000000E+00  0.00000000E+00
  0.00000000E+00  0.00000000E+00  0.00000000E+00
  0.00000000E+00  0.00000000E+00  0.00000000E+00
  0.00000000E+00  0.00000000E+00  0.00000000E+00
  0.00000000E+00  0.00000000E+00  0.00000000E+00
  0.00000000E+00  0.00000000E+00  0.00000000E+00
  0.00000000E+00  0.00000000E+00  0.00000000E+00
  0.00000000E+00  0.00000000E+00  0.00000000E+00
  0.00000000E+00  0.00000000E+00  0.00000000E+00
  0.00000000E+00  0.00000000E+00  0.00000000E+00
  0.00000000E+00  0.00000000E+00  0.00000000E+00
  0.00000000E+00  0.00000000E+00  0.00000000E+00
  0.00000000E+00  0.00000000E+00  0.00000000E+00
  0.00000000E+00  0.00000000E+00  0.00000000E+00
  0.00000000E+00  0.00000000E+00  0.00000000E+00
  0.00000000E+00  0.00000000E+00  0.00000000E+00
  0.00000000E+00  0.00000000E+00  0.00000000E+00
  0.00000000E+00  0.00000000E+00  0.00000000E+00
  0.00000000E+00  0.00000000E+00  0.00000000E+00
  0.00000000E+00  0.00000000E+00  0.00000000E+00
  0.00000000E+00  0.00000000E+00  0.00000000E+00
  0.00000000E+00  0.00000000E+00  0.00000000E+00
  0.00000000E+00  0.00000000E+00  0.00000000E+00
  0.00000000E+00  0.00000000E+00  0.00000000E+00
  0.00000000E+00  0.00000000E+00  0.00000000E+00
  0.00000000E+00  0.00000000E+00  0.00000000E+00
  0.00000000E+00  0.00000000E+00  0.00000000E+00
  0.00000000E+00  0.00000000E+00  0.00000000E+00
  0.00000000E+00  0.00000000E+00  0.00000000E+00
  0.00000000E+00  0.00000000E+00  0.00000000E+00
  0.00000000E+00  0.00000000E+00  0.00000000E+00
  0.00000000E+00  0.00000000E+00  0.00000000E+00
  0.00000000E+00  0.00000000E+00  0.00000000E+00
  0.00000000E+00  0.00000000E+00  0.00000000E+00
  0.00000000E+00  0.00000000E+00  0.00000000E+00
  0.00000000E+00  0.00000000E+00  0.00000000E+00
  0.00000000E+00  0.00000000E+00  0.00000000E+00
  0.00000000E+00  0.00000000E+00  0.00000000E+00
  0.00000000E+00  0.00000000E+00  0.00000000E+00
  0.00000000E+00  0.00000000E+00  0.00000000E+00
  0.00000000E+00  0.00000000E+00  0.00000000E+00
  0.00000000E+00  0.00000000E+00  0.00000000E+00
  0.00000000E+00  0.00000000E+00  0.00000000E+00
  0.00000000E+00  0.00000000E+00  0.00000000E+00
  0.00000000E+00  0.00000000E+00  0.00000000E+00
  0.00000000E+00  0.00000000E+00  0.00000000E+00
  0.00000000E+00  0.00000000E+00  0.00000000E+00
  0.00000000E+00  0.00000000E+00  0.00000000E+00
  0.00000000E+00  0.00000000E+00  0.00000000E+00
  0.00000000E+00  0.00000000E+00  0.00000000E+00
