Primitive Cell                          
   1.00000000000000     
     8.6259711163902431   -0.0022618811964185   -0.0021709949148878
    -0.0178901660477373   12.4014534100474378   -0.0006579604875647
     0.0046434030074744   -0.0006082298429894   10.9472356949938714
   Si   Hf   O    Li
    16     8    56    16
Selective dynamics
Direct
  0.8751194509749070  0.3572501830287536  0.0216665616938272   T   T   T
  0.5790228328499012  0.8604827244508471  0.0236829452187095   T   T   T
  0.5975392382103450  0.0983667485814266  0.0609323653136045   T   T   T
  0.8550558153921628  0.5955296192426758  0.0633557166584069   T   T   T
  0.3547020132041894  0.5944808519775648  0.2713508983796729   T   T   T
  0.0968441083532099  0.0957470771832405  0.2724209995197029   T   T   T
  0.0813257619056529  0.8571847534907846  0.3096197054519934   T   T   T
  0.3738499334872074  0.3558751501709096  0.3136994685236871   T   T   T
  0.5825938518616880  0.8885579623549376  0.5261837813424464   T   T   T
  0.8745385804074459  0.3903463827710212  0.5288940241286042   T   T   T
  0.5950046722516547  0.6482278118985505  0.5578432295279754   T   T   T
  0.8622166088921546  0.1515199426644642  0.5599229334751001   T   T   T
  0.3620102615202967  0.1509267038317788  0.7755428536730804   T   T   T
  0.0952197997869959  0.6499363404244747  0.7765214927541066   T   T   T
  0.3737950268777439  0.3908932379534420  0.8060688495412123   T   T   T
  0.0854092959132871  0.8908706412723006  0.8072164783618092   T   T   T
  0.2414174954409347  0.2393408131635226  0.0440320784556434   T   T   T
  0.2135066817724507  0.7383771860856001  0.0469754386525238   T   T   T
  0.7063756672020745  0.7376658628302835  0.2903356537476753   T   T   T
  0.7413982256001219  0.2389159063242516  0.2917100167308533   T   T   T
  0.2437741413090393  0.5119112596014332  0.5440622680280356   T   T   T
  0.2169597529950664  0.0123625449946800  0.5432987431477088   T   T   T
  0.7440769987986187  0.5114964858027591  0.7912805878315297   T   T   T
  0.7123784886760163  0.0131159495009783  0.7930734976268852   T   T   T
  0.0114497386225096  0.2690414338385168  0.0064892078261352   T   T   T
  0.4457938287957290  0.7695057931567177  0.0111003795885836   T   T   T
  0.4758430563154690  0.1982837808527975  0.0461585633322983   T   T   T
  0.9785169951193353  0.6952044773060067  0.0472026968821808   T   T   T
  0.4980024848720959  0.9809431200542278  0.0505229724913647   T   T   T
  0.9541504399026408  0.4783952098809863  0.0516141929595477   T   T   T
  0.7526876558724140  0.3281750984525402  0.1318610602321755   T   T   T
  0.7038964893361950  0.8395710801071985  0.1365929701682163   T   T   T
  0.2732869349178202  0.5988486649224285  0.1360563473836152   T   T   T
  0.1774483128314301  0.1007234236456256  0.1370524678249225   T   T   T
  0.6756966000966855  0.1007403467901469  0.1974201634297188   T   T   T
  0.2005460657790579  0.8358408306301186  0.1969162742345603   T   T   T
  0.7783625462680632  0.6005590743034901  0.2000979917033234   T   T   T
  0.2494576526293741  0.3267281377399982  0.2048004752912931   T   T   T
  0.9966306062540440  0.9782306843175164  0.2795245921617493   T   T   T
  0.4523621720996118  0.4761535470068452  0.2817517759167814   T   T   T
  0.4851669021131926  0.6887352450083952  0.2828618520816661   T   T   T
  0.9740967996748466  0.1953089625027573  0.2881920267921103   T   T   T
  0.9443434058614812  0.7674681085406476  0.3195801773190183   T   T   T
  0.5101193676358236  0.2672046618538104  0.3261259561775702   T   T   T
  0.2215490501990445  0.5963020859765678  0.3780868134853606   T   T   T
  0.2301163476081314  0.0957257819435924  0.3790195161857639   T   T   T
  0.7971802555412353  0.3783364468615531  0.3917447232760836   T   T   T
  0.6884686314425750  0.8795211650760564  0.4010693193483448   T   T   T
  0.2686898055476235  0.3664080947638553  0.4384216698622367   T   T   T
  0.7243073349927371  0.6419464788434155  0.4473596780662632   T   T   T
  0.1532249604257814  0.8704079899995492  0.4477237464642414   T   T   T
  0.7289837107657178  0.1496174344447141  0.4536043429698609   T   T   T
  0.4499372639786756  0.9796303243761244  0.5129988208928467   T   T   T
  0.0069585220990831  0.4824272774448843  0.5152699669169181   T   T   T
  0.4676911722541135  0.5538392982779712  0.5443257508757782   T   T   T
  0.9834176465533986  0.0516784925277065  0.5451469539264622   T   T   T
  0.5011332036318805  0.7681657914695421  0.5509603127431575   T   T   T
  0.9613889376353484  0.2692774524162544  0.5527215339413303   T   T   T
  0.7087609656558129  0.9088901730640728  0.6381692752550450   T   T   T
  0.7557394829373649  0.4078394745961020  0.6428006130858108   T   T   T
  0.2756657672671565  0.1470882697110838  0.6418885575640942   T   T   T
  0.1832381354455705  0.6462623380967258  0.6440911357742323   T   T   T
  0.6808663996635076  0.6457923750458292  0.6912320578971034   T   T   T
  0.2530475653737412  0.4091846712625866  0.6935576709281008   T   T   T
  0.7817320262071448  0.1469675748797599  0.6955208359149765   T   T   T
  0.2040260573385737  0.9108433826658668  0.6937361898159864   T   T   T
  0.4587377541905440  0.2701763815912699  0.7807480118347669   T   T   T
  0.9998158703283266  0.7698422947221104  0.7807803980195018   T   T   T
  0.4903327106538100  0.0564745835922622  0.7860927740006218   T   T   T
  0.9664577303053434  0.5560774650269167  0.7893369684249762   T   T   T
  0.9498187240633911  0.9812429956457009  0.8180059742260894   T   T   T
  0.5065112187763958  0.4831917504842664  0.8183194726777430   T   T   T
  0.2306844141511206  0.1480806751154375  0.8834820915318815   T   T   T
  0.2223558028751000  0.6422710619040117  0.8884556703355742   T   T   T
  0.7676674369413092  0.3675386254474233  0.8980966020055305   T   T   T
  0.6866402926714059  0.8677090583492770  0.8994276070315408   T   T   T
  0.2990870576345941  0.3788719234937687  0.9442054145154231   T   T   T
  0.1577390290013838  0.8769625764613025  0.9451265396128150   T   T   T
  0.7327904679837900  0.0972825360016785  0.9559345752335844   T   T   T
  0.7204391360828239  0.5968789784090944  0.9575365622811489   T   T   T
  0.8818274033341567  0.8326037041760515  0.0037583541762203   T   T   T
  0.5749633356190529  0.3358235713548439  0.0057008713035316   T   T   T
  0.1824910273632199  0.5015237001077750  0.0107037917633690   T   T   T
  0.2642967760559856  0.9771159083274554  0.0582485625485418   T   T   T
  0.7631222564195141  0.9726853786088014  0.2630255785751388   T   T   T
  0.6804894445597469  0.5010760920925108  0.3222441537932639   T   T   T
  0.0760718916987670  0.3307423144455939  0.3330984495490839   T   T   T
  0.9848860909152464  0.6208100212696266  0.4040197661891227   T   T   T
  0.4820267165977015  0.1216758540862344  0.4145942126802780   T   T   T
  0.8880951175091383  0.9120576762272847  0.5081307645118542   T   T   T
  0.2640966995750773  0.7770821365451894  0.5714911737591919   T   T   T
  0.1938548921082131  0.2807704800870496  0.5836085422244324   T   T   T
  0.6913875284336513  0.2795399162759225  0.7529305799576420   T   T   T
  0.7630735718628827  0.7769145979114924  0.7580651446987048   T   T   T
  0.9872459389452501  0.1272811720100577  0.9062459165691692   T   T   T
  0.4819318886258301  0.6247918027303427  0.9191416148706324   T   T   T
 
  0.00000000E+00  0.00000000E+00  0.00000000E+00
  0.00000000E+00  0.00000000E+00  0.00000000E+00
  0.00000000E+00  0.00000000E+00  0.00000000E+00
  0.00000000E+00  0.00000000E+00  0.00000000E+00
  0.00000000E+00  0.00000000E+00  0.00000000E+00
  0.00000000E+00  0.00000000E+00  0.00000000E+00
  0.00000000E+00  0.00000000E+00  0.00000000E+00
  0.00000000E+00  0.00000000E+00  0.00000000E+00
  0.00000000E+00  0.00000000E+00  0.00000000E+00
  0.00000000E+00  0.00000000E+00  0.00000000E+00
  0.00000000E+00  0.00000000E+00  0.00000000E+00
  0.00000000E+00  0.00000000E+00  0.00000000E+00
  0.00000000E+00  0.00000000E+00  0.00000000E+00
  0.00000000E+00  0.00000000E+00  0.00000000E+00
  0.00000000E+00  0.00000000E+00  0.00000000E+00
  0.00000000E+00  0.00000000E+00  0.00000000E+00
  0.00000000E+00  0.00000000E+00  0.00000000E+00
  0.00000000E+00  0.00000000E+00  0.00000000E+00
  0.00000000E+00  0.00000000E+00  0.00000000E+00
  0.00000000E+00  0.00000000E+00  0.00000000E+00
  0.00000000E+00  0.00000000E+00  0.00000000E+00
  0.00000000E+00  0.00000000E+00  0.00000000E+00
  0.00000000E+00  0.00000000E+00  0.00000000E+00
  0.00000000E+00  0.00000000E+00  0.00000000E+00
  0.00000000E+00  0.00000000E+00  0.00000000E+00
  0.00000000E+00  0.00000000E+00  0.00000000E+00
  0.00000000E+00  0.00000000E+00  0.00000000E+00
  0.00000000E+00  0.00000000E+00  0.00000000E+00
  0.00000000E+00  0.00000000E+00  0.00000000E+00
  0.00000000E+00  0.00000000E+00  0.00000000E+00
  0.00000000E+00  0.00000000E+00  0.00000000E+00
  0.00000000E+00  0.00000000E+00  0.00000000E+00
  0.00000000E+00  0.00000000E+00  0.00000000E+00
  0.00000000E+00  0.00000000E+00  0.00000000E+00
  0.00000000E+00  0.00000000E+00  0.00000000E+00
  0.00000000E+00  0.00000000E+00  0.00000000E+00
  0.00000000E+00  0.00000000E+00  0.00000000E+00
  0.00000000E+00  0.00000000E+00  0.00000000E+00
  0.00000000E+00  0.00000000E+00  0.00000000E+00
  0.00000000E+00  0.00000000E+00  0.00000000E+00
  0.00000000E+00  0.00000000E+00  0.00000000E+00
  0.00000000E+00  0.00000000E+00  0.00000000E+00
  0.00000000E+00  0.00000000E+00  0.00000000E+00
  0.00000000E+00  0.00000000E+00  0.00000000E+00
  0.00000000E+00  0.00000000E+00  0.00000000E+00
  0.00000000E+00  0.00000000E+00  0.00000000E+00
  0.00000000E+00  0.00000000E+00  0.00000000E+00
  0.00000000E+00  0.00000000E+00  0.00000000E+00
  0.00000000E+00  0.00000000E+00  0.00000000E+00
  0.00000000E+00  0.00000000E+00  0.00000000E+00
  0.00000000E+00  0.00000000E+00  0.00000000E+00
  0.00000000E+00  0.00000000E+00  0.00000000E+00
  0.00000000E+00  0.00000000E+00  0.00000000E+00
  0.00000000E+00  0.00000000E+00  0.00000000E+00
  0.00000000E+00  0.00000000E+00  0.00000000E+00
  0.00000000E+00  0.00000000E+00  0.00000000E+00
  0.00000000E+00  0.00000000E+00  0.00000000E+00
  0.00000000E+00  0.00000000E+00  0.00000000E+00
  0.00000000E+00  0.00000000E+00  0.00000000E+00
  0.00000000E+00  0.00000000E+00  0.00000000E+00
  0.00000000E+00  0.00000000E+00  0.00000000E+00
  0.00000000E+00  0.00000000E+00  0.00000000E+00
  0.00000000E+00  0.00000000E+00  0.00000000E+00
  0.00000000E+00  0.00000000E+00  0.00000000E+00
  0.00000000E+00  0.00000000E+00  0.00000000E+00
  0.00000000E+00  0.00000000E+00  0.00000000E+00
  0.00000000E+00  0.00000000E+00  0.00000000E+00
  0.00000000E+00  0.00000000E+00  0.00000000E+00
  0.00000000E+00  0.00000000E+00  0.00000000E+00
  0.00000000E+00  0.00000000E+00  0.00000000E+00
  0.00000000E+00  0.00000000E+00  0.00000000E+00
  0.00000000E+00  0.00000000E+00  0.00000000E+00
  0.00000000E+00  0.00000000E+00  0.00000000E+00
  0.00000000E+00  0.00000000E+00  0.00000000E+00
  0.00000000E+00  0.00000000E+00  0.00000000E+00
  0.00000000E+00  0.00000000E+00  0.00000000E+00
  0.00000000E+00  0.00000000E+00  0.00000000E+00
  0.00000000E+00  0.00000000E+00  0.00000000E+00
  0.00000000E+00  0.00000000E+00  0.00000000E+00
  0.00000000E+00  0.00000000E+00  0.00000000E+00
  0.00000000E+00  0.00000000E+00  0.00000000E+00
  0.00000000E+00  0.00000000E+00  0.00000000E+00
  0.00000000E+00  0.00000000E+00  0.00000000E+00
  0.00000000E+00  0.00000000E+00  0.00000000E+00
  0.00000000E+00  0.00000000E+00  0.00000000E+00
  0.00000000E+00  0.00000000E+00  0.00000000E+00
  0.00000000E+00  0.00000000E+00  0.00000000E+00
  0.00000000E+00  0.00000000E+00  0.00000000E+00
  0.00000000E+00  0.00000000E+00  0.00000000E+00
  0.00000000E+00  0.00000000E+00  0.00000000E+00
  0.00000000E+00  0.00000000E+00  0.00000000E+00
  0.00000000E+00  0.00000000E+00  0.00000000E+00
  0.00000000E+00  0.00000000E+00  0.00000000E+00
  0.00000000E+00  0.00000000E+00  0.00000000E+00
  0.00000000E+00  0.00000000E+00  0.00000000E+00
  0.00000000E+00  0.00000000E+00  0.00000000E+00
