Primitive Cell                          
   1.00000000000000     
     5.0093650876470752    0.0335301793959639    0.0174254294010521
    -2.7132351868955955    4.2820756460083764    0.0101812376426789
     0.2581533371027064   -1.8822421703918202   35.3192771137488393
   P    Al   O    Li
    12     6    42     6
Selective dynamics
Direct
  0.1038990592690965  0.0047059009866999  0.0259279707826892   T   T   T
  0.0701403608167652  0.9570080626874571  0.1108528055202882   T   T   T
  0.4856485418575005  0.6981745899830543  0.1911491827163090   T   T   T
  0.4559050894041832  0.7435797788718190  0.2767275624114660   T   T   T
  0.7667674533778808  0.3766574743519797  0.3581818957987721   T   T   T
  0.7590619115411101  0.3514500328809476  0.4431554810572038   T   T   T
  0.1719335600258560  0.0901196590343361  0.5250434294016983   T   T   T
  0.1371328141811077  0.0385802897391230  0.6103328289381196   T   T   T
  0.4604810734501186  0.6785230002759306  0.6919688118901632   T   T   T
  0.4221258502281913  0.6318756190758918  0.7772563743699692   T   T   T
  0.8350444464249378  0.3710024918793664  0.8578523864983225   T   T   T
  0.7896845054581192  0.3653563236291291  0.9436675641018155   T   T   T
  0.7770624865060256  0.3303191151991953  0.1521338924869937   T   T   T
  0.1108666024445242  0.0612965150499178  0.3181135714707466   T   T   T
  0.4669032152135628  0.7218298283044220  0.4842889283491800   T   T   T
  0.7992972912578580  0.3588729867034246  0.6512947973778296   T   T   T
  0.1278781877834092  0.9980944322645797  0.8186622686219422   T   T   T
  0.4464953993397103  0.6885987887954315  0.9856612841551353   T   T   T
  0.3120193285577386  0.3136387021794320  0.0085933147755597   T   T   T
  0.1508978633127498  0.7416728019367085  0.0129833752041293   T   T   T
  0.7564679794156248  0.9068957540799687  0.0276145835836488   T   T   T
  0.2350861934246282  0.0770249473956213  0.0700634099369495   T   T   T
  0.8866714595420575  0.5993014283364246  0.1088115947607733   T   T   T
  0.8423624138217889  0.0718670661749101  0.1160039194642195   T   T   T
  0.3502592301066230  0.1087505063380476  0.1374866306480840   T   T   T
  0.2009035739492973  0.5409308378698725  0.1656485494026754   T   T   T
  0.7129673498649893  0.5871595481164817  0.1856323888184193   T   T   T
  0.6801724029812775  0.0561903679224827  0.1934253154923269   T   T   T
  0.3334100399298308  0.5961586705534927  0.2331378737057577   T   T   T
  0.8149809225940885  0.8993933609161786  0.2751264713125465   T   T   T
  0.3626395952346400  0.9808509359727040  0.2846900047373708   T   T   T
  0.2922561775383201  0.4562390214365379  0.2990489203945117   T   T   T
  0.9599913317582747  0.6786596115546644  0.3389449880103044   T   T   T
  0.8175042733224558  0.1151967866964156  0.3458029701213192   T   T   T
  0.4170222924414873  0.2675762370380639  0.3612023037552987   T   T   T
  0.9130048485987388  0.4671596626755274  0.4017173503923530   T   T   T
  0.5778882895868165  0.9940384037484762  0.4416141029823351   T   T   T
  0.5299695191219271  0.4639948712341919  0.4488579315414896   T   T   T
  0.0450632373912470  0.5093650608464344  0.4687004798237666   T   T   T
  0.8900830192513425  0.9350102338671604  0.4987713063281447   T   T   T
  0.4028578055801688  0.9790920693249348  0.5195642118766273   T   T   T
  0.3530722963890298  0.4480480736364711  0.5267148014297476   T   T   T
  0.0116268306082006  0.9700335097480348  0.5658297805915140   T   T   T
  0.4824830561767683  0.1280633590171050  0.6093283473096278   T   T   T
  0.0882084325153301  0.3020117848613140  0.6226051919417301   T   T   T
  0.9218672163870849  0.7270148315082068  0.6268226912402284   T   T   T
  0.6759807210216877  0.9894765237851928  0.6752773778896781   T   T   T
  0.5084879237485538  0.4145862277099681  0.6794826730438928   T   T   T
  0.1151686496633744  0.5891959905009472  0.6927083220558359   T   T   T
  0.5855468034239522  0.7462079741886001  0.7363138567872056   T   T   T
  0.2377890069382929  0.2742527629188416  0.7761229357031212   T   T   T
  0.1937285220883354  0.7463747929286768  0.7817049511512693   T   T   T
  0.7033003553411135  0.7879227270177225  0.8036679479639233   T   T   T
  0.5532609949341776  0.2071189489825827  0.8317834717213302   T   T   T
  0.0693485681360997  0.2617887983635967  0.8548423685034692   T   T   T
  0.0165160970801423  0.7245079565033592  0.8584653526648154   T   T   T
  0.6701773850094455  0.2722810314309640  0.8993254625742750   T   T   T
  0.1440758833911531  0.4928760545749356  0.9433873623638789   T   T   T
  0.7068574270088348  0.6105268091489506  0.9533100532978409   T   T   T
  0.6026677441141786  0.0679060900024950  0.9636451770023911   T   T   T
  0.7205723651742701  0.2201841627571000  0.0698876959293813   T   T   T
  0.0262166220225311  0.1393383340023959  0.2318239316851063   T   T   T
  0.3968618775005197  0.6050894905675648  0.4025978388712730   T   T   T
  0.5239764597901697  0.8303950921424814  0.5667262085243081   T   T   T
  0.0732074813055661  0.8948644534406469  0.7360790034442175   T   T   T
  0.3636497823060481  0.4370858933874615  0.9011142620436345   T   T   T
 
  0.00000000E+00  0.00000000E+00  0.00000000E+00
  0.00000000E+00  0.00000000E+00  0.00000000E+00
  0.00000000E+00  0.00000000E+00  0.00000000E+00
  0.00000000E+00  0.00000000E+00  0.00000000E+00
  0.00000000E+00  0.00000000E+00  0.00000000E+00
  0.00000000E+00  0.00000000E+00  0.00000000E+00
  0.00000000E+00  0.00000000E+00  0.00000000E+00
  0.00000000E+00  0.00000000E+00  0.00000000E+00
  0.00000000E+00  0.00000000E+00  0.00000000E+00
  0.00000000E+00  0.00000000E+00  0.00000000E+00
  0.00000000E+00  0.00000000E+00  0.00000000E+00
  0.00000000E+00  0.00000000E+00  0.00000000E+00
  0.00000000E+00  0.00000000E+00  0.00000000E+00
  0.00000000E+00  0.00000000E+00  0.00000000E+00
  0.00000000E+00  0.00000000E+00  0.00000000E+00
  0.00000000E+00  0.00000000E+00  0.00000000E+00
  0.00000000E+00  0.00000000E+00  0.00000000E+00
  0.00000000E+00  0.00000000E+00  0.00000000E+00
  0.00000000E+00  0.00000000E+00  0.00000000E+00
  0.00000000E+00  0.00000000E+00  0.00000000E+00
  0.00000000E+00  0.00000000E+00  0.00000000E+00
  0.00000000E+00  0.00000000E+00  0.00000000E+00
  0.00000000E+00  0.00000000E+00  0.00000000E+00
  0.00000000E+00  0.00000000E+00  0.00000000E+00
  0.00000000E+00  0.00000000E+00  0.00000000E+00
  0.00000000E+00  0.00000000E+00  0.00000000E+00
  0.00000000E+00  0.00000000E+00  0.00000000E+00
  0.00000000E+00  0.00000000E+00  0.00000000E+00
  0.00000000E+00  0.00000000E+00  0.00000000E+00
  0.00000000E+00  0.00000000E+00  0.00000000E+00
  0.00000000E+00  0.00000000E+00  0.00000000E+00
  0.00000000E+00  0.00000000E+00  0.00000000E+00
  0.00000000E+00  0.00000000E+00  0.00000000E+00
  0.00000000E+00  0.00000000E+00  0.00000000E+00
  0.00000000E+00  0.00000000E+00  0.00000000E+00
  0.00000000E+00  0.00000000E+00  0.00000000E+00
  0.00000000E+00  0.00000000E+00  0.00000000E+00
  0.00000000E+00  0.00000000E+00  0.00000000E+00
  0.00000000E+00  0.00000000E+00  0.00000000E+00
  0.00000000E+00  0.00000000E+00  0.00000000E+00
  0.00000000E+00  0.00000000E+00  0.00000000E+00
  0.00000000E+00  0.00000000E+00  0.00000000E+00
  0.00000000E+00  0.00000000E+00  0.00000000E+00
  0.00000000E+00  0.00000000E+00  0.00000000E+00
  0.00000000E+00  0.00000000E+00  0.00000000E+00
  0.00000000E+00  0.00000000E+00  0.00000000E+00
  0.00000000E+00  0.00000000E+00  0.00000000E+00
  0.00000000E+00  0.00000000E+00  0.00000000E+00
  0.00000000E+00  0.00000000E+00  0.00000000E+00
  0.00000000E+00  0.00000000E+00  0.00000000E+00
  0.00000000E+00  0.00000000E+00  0.00000000E+00
  0.00000000E+00  0.00000000E+00  0.00000000E+00
  0.00000000E+00  0.00000000E+00  0.00000000E+00
  0.00000000E+00  0.00000000E+00  0.00000000E+00
  0.00000000E+00  0.00000000E+00  0.00000000E+00
  0.00000000E+00  0.00000000E+00  0.00000000E+00
  0.00000000E+00  0.00000000E+00  0.00000000E+00
  0.00000000E+00  0.00000000E+00  0.00000000E+00
  0.00000000E+00  0.00000000E+00  0.00000000E+00
  0.00000000E+00  0.00000000E+00  0.00000000E+00
  0.00000000E+00  0.00000000E+00  0.00000000E+00
  0.00000000E+00  0.00000000E+00  0.00000000E+00
  0.00000000E+00  0.00000000E+00  0.00000000E+00
  0.00000000E+00  0.00000000E+00  0.00000000E+00
  0.00000000E+00  0.00000000E+00  0.00000000E+00
  0.00000000E+00  0.00000000E+00  0.00000000E+00
