Primitive Cell                          
   1.00000000000000     
     7.6733976048163814    0.0279031182214319    0.0535937455112956
    -0.0060249232104341    7.6714284724796169    0.0136396270704807
    -0.6641058258006840    0.1951927331262657   22.4057921083927027
   Ta   Si   O    Li
    16     8    64    16
Selective dynamics
Direct
  0.3432135062681922  0.5692838698437797  0.1331111642124441   T   T   T
  0.2991459972136283  0.0726845953902142  0.1345234011667529   T   T   T
  0.7895290795653409  0.0607044415659743  0.1483680905998312   T   T   T
  0.8458943177354854  0.5535556928958982  0.1483616533962717   T   T   T
  0.0667590461124945  0.3398033727438587  0.3819490188109569   T   T   T
  0.5618487492534783  0.2925019375002549  0.3858849449927533   T   T   T
  0.5671086640325385  0.7874647688017049  0.3962893718287077   T   T   T
  0.0735150078654740  0.8430726262700503  0.4014729932025531   T   T   T
  0.3480167956371645  0.5700214575109399  0.6309963871056112   T   T   T
  0.3030819296781075  0.0697701246703062  0.6368786875666430   T   T   T
  0.8489026587010429  0.5531960601705919  0.6488411515980559   T   T   T
  0.7933591522943289  0.0607276396891407  0.6486098568606451   T   T   T
  0.0671169500817328  0.3421539739619845  0.8819516127764970   T   T   T
  0.5604204371148001  0.2917051845459824  0.8835600288659009   T   T   T
  0.5693029189120509  0.7849474791184434  0.8957598081110376   T   T   T
  0.0763695475566379  0.8443233249297961  0.9024867159649261   T   T   T
  0.5723391521743295  0.0477816559508639  0.0162848118658303   T   T   T
  0.0605349315954200  0.5496866164421377  0.0160947772567610   T   T   T
  0.0779524657156259  0.0633573885836398  0.2652251580436413   T   T   T
  0.5763352100966799  0.5712534285700670  0.2661256526270606   T   T   T
  0.0612648115756755  0.5490061146068825  0.5153451671321534   T   T   T
  0.5742005886281163  0.0487799716558186  0.5173962519230315   T   T   T
  0.5699202881164567  0.5724827720374535  0.7643843673659347   T   T   T
  0.0800932727722525  0.0640311991647451  0.7658116588792367   T   T   T
  0.3947172329721198  0.1009645454199415  0.0517151565538470   T   T   T
  0.2438252151291849  0.5016033395321173  0.0518860871087199   T   T   T
  0.7497613550132698  0.0383035590028129  0.0579540054373595   T   T   T
  0.8943782128445292  0.5806320608145796  0.0588476230252155   T   T   T
  0.5770912729501489  0.5902727609153970  0.1110704355107046   T   T   T
  0.0609039817613564  0.0899197210824809  0.1155233768906072   T   T   T
  0.2766366888688836  0.8112117384091704  0.1197929495699412   T   T   T
  0.7823329027045602  0.3116454616391096  0.1399792364620325   T   T   T
  0.8564979263330486  0.8128838353817827  0.1479915967490157   T   T   T
  0.3475146162607885  0.3130108488509080  0.1546588039827270   T   T   T
  0.5554877365812914  0.0158320051684484  0.1687548875623364   T   T   T
  0.0823037409103691  0.5344369624219851  0.1666833826242211   T   T   T
  0.4113362979923636  0.6093355173449382  0.2197962606849941   T   T   T
  0.2462221369439774  0.0291082937652831  0.2235060307859698   T   T   T
  0.8905460043895559  0.0858652246106786  0.2301160508670677   T   T   T
  0.7646807117076335  0.5578175341266558  0.2332742115956918   T   T   T
  0.1236341662356182  0.2454744541010001  0.3015776508063723   T   T   T
  0.5251574475900966  0.3934431695102489  0.3024651494026003   T   T   T
  0.5894301277771774  0.7476740975116698  0.3065374142227029   T   T   T
  0.0417413514229565  0.9016256095230517  0.3111385145436998   T   T   T
  0.5438466923379295  0.0581584801340114  0.3618031212369957   T   T   T
  0.0428568141210590  0.5760713400741224  0.3628778687401706   T   T   T
  0.8213770795699986  0.2753988770235551  0.3716285279619669   T   T   T
  0.3164289200798507  0.7964434595178744  0.3889883946039134   T   T   T
  0.8151372115938926  0.8500914794393850  0.3973112027500321   T   T   T
  0.3181304063295869  0.3324437498327200  0.4057929637625861   T   T   T
  0.6015147042506044  0.5511740332315043  0.4152895461376218   T   T   T
  0.0807338485455418  0.0780420146299363  0.4228286942995751   T   T   T
  0.6099935885461605  0.2123417984810274  0.4710309910962991   T   T   T
  0.0247510299876978  0.3840490982605260  0.4713649477659487   T   T   T
  0.0786310703340973  0.7377899054068848  0.4813970407406458   T   T   T
  0.5567210242817566  0.8621810426858403  0.4824731078757765   T   T   T
  0.2452031207449537  0.5005191310813260  0.5506563394658386   T   T   T
  0.3968264295117834  0.0975867124017427  0.5531382376050828   T   T   T
  0.7534579974476685  0.0376957336190458  0.5582390625847680   T   T   T
  0.8986514529044527  0.5806271649790702  0.5596247499093820   T   T   T
  0.5803170806772400  0.5911315246825879  0.6101099615222196   T   T   T
  0.0637287132902884  0.0869407005838383  0.6175611616015857   T   T   T
  0.2765885996233663  0.8082139553539136  0.6188117770182870   T   T   T
  0.7844398874857532  0.3118592029278346  0.6398765052477202   T   T   T
  0.3440859894957313  0.3119251224328252  0.6519709800216802   T   T   T
  0.8590548993914027  0.8117080118493902  0.6482415959593766   T   T   T
  0.0835526864135687  0.5276845562850383  0.6700675363424438   T   T   T
  0.5595712952654495  0.0197465073446423  0.6704804328737737   T   T   T
  0.4038502426539523  0.5975491684618390  0.7186105095790580   T   T   T
  0.2496270582272544  0.0263577065099128  0.7254327164107366   T   T   T
  0.8934415322190148  0.0862856255596185  0.7302118351410414   T   T   T
  0.7598030986213047  0.5604136776190742  0.7323238425045488   T   T   T
  0.1201378207777708  0.2500420562158965  0.8010055371840608   T   T   T
  0.5309279358303058  0.3972550682027958  0.8037690968174900   T   T   T
  0.5871826224740317  0.7469980209319047  0.8060067197548761   T   T   T
  0.0388144894466578  0.9061385484749849  0.8128140959318060   T   T   T
  0.5454721185704372  0.0589909891704892  0.8548576743015133   T   T   T
  0.0423401498914657  0.5784567316720626  0.8630549719614038   T   T   T
  0.8227203846314239  0.2754846429393538  0.8733853246321104   T   T   T
  0.3175867229862774  0.8004019445691739  0.8889561584198304   T   T   T
  0.8149968381432871  0.8502097709881582  0.8980731803640722   T   T   T
  0.3185096540366814  0.3309285287261545  0.9054256760815278   T   T   T
  0.6005362225615656  0.5504914729183099  0.9148342510334260   T   T   T
  0.0810939243294371  0.0791065271441909  0.9232890439953394   T   T   T
  0.6091246235054939  0.2069626402834146  0.9686296255972806   T   T   T
  0.0271688159449539  0.3856651672386349  0.9714988912833320   T   T   T
  0.5539528981477915  0.8601256003894093  0.9822187305141554   T   T   T
  0.0802706341696648  0.7388133540999817  0.9822684920592621   T   T   T
  0.6526809766126220  0.6570825802303446  0.0306624900400791   T   T   T
  0.0316514028366939  0.8486918758093935  0.0831371601145392   T   T   T
  0.3117821722477814  0.3417121408705981  0.2454737985422000   T   T   T
  0.4557827943544979  0.8945265077804976  0.2440294109813834   T   T   T
  0.9456510538384322  0.6699568209481654  0.2866109135986221   T   T   T
  0.7853991968267096  0.0360407538302567  0.3314888250105525   T   T   T
  0.8822445323586265  0.1739455337443090  0.4842501787304698   T   T   T
  0.2993120906394324  0.2896984328639860  0.4972786755936838   T   T   T
  0.6574107499978368  0.6560320641534929  0.5293530651418195   T   T   T
  0.0333299572540611  0.8493862450860377  0.5828424729839981   T   T   T
  0.2370641230826465  0.3920436668783012  0.7335407073005697   T   T   T
  0.4797483110703382  0.9640481239829697  0.7635156361830084   T   T   T
  0.9224361655632265  0.6812348821823520  0.7904891773097589   T   T   T
  0.7970062035013115  0.0403864449175728  0.8357233883604493   T   T   T
  0.8793964683280464  0.1770970938432868  0.9828617417534460   T   T   T
  0.2989539677601627  0.2931709500015316  0.9964476253367494   T   T   T
 
  0.00000000E+00  0.00000000E+00  0.00000000E+00
  0.00000000E+00  0.00000000E+00  0.00000000E+00
  0.00000000E+00  0.00000000E+00  0.00000000E+00
  0.00000000E+00  0.00000000E+00  0.00000000E+00
  0.00000000E+00  0.00000000E+00  0.00000000E+00
  0.00000000E+00  0.00000000E+00  0.00000000E+00
  0.00000000E+00  0.00000000E+00  0.00000000E+00
  0.00000000E+00  0.00000000E+00  0.00000000E+00
  0.00000000E+00  0.00000000E+00  0.00000000E+00
  0.00000000E+00  0.00000000E+00  0.00000000E+00
  0.00000000E+00  0.00000000E+00  0.00000000E+00
  0.00000000E+00  0.00000000E+00  0.00000000E+00
  0.00000000E+00  0.00000000E+00  0.00000000E+00
  0.00000000E+00  0.00000000E+00  0.00000000E+00
  0.00000000E+00  0.00000000E+00  0.00000000E+00
  0.00000000E+00  0.00000000E+00  0.00000000E+00
  0.00000000E+00  0.00000000E+00  0.00000000E+00
  0.00000000E+00  0.00000000E+00  0.00000000E+00
  0.00000000E+00  0.00000000E+00  0.00000000E+00
  0.00000000E+00  0.00000000E+00  0.00000000E+00
  0.00000000E+00  0.00000000E+00  0.00000000E+00
  0.00000000E+00  0.00000000E+00  0.00000000E+00
  0.00000000E+00  0.00000000E+00  0.00000000E+00
  0.00000000E+00  0.00000000E+00  0.00000000E+00
  0.00000000E+00  0.00000000E+00  0.00000000E+00
  0.00000000E+00  0.00000000E+00  0.00000000E+00
  0.00000000E+00  0.00000000E+00  0.00000000E+00
  0.00000000E+00  0.00000000E+00  0.00000000E+00
  0.00000000E+00  0.00000000E+00  0.00000000E+00
  0.00000000E+00  0.00000000E+00  0.00000000E+00
  0.00000000E+00  0.00000000E+00  0.00000000E+00
  0.00000000E+00  0.00000000E+00  0.00000000E+00
  0.00000000E+00  0.00000000E+00  0.00000000E+00
  0.00000000E+00  0.00000000E+00  0.00000000E+00
  0.00000000E+00  0.00000000E+00  0.00000000E+00
  0.00000000E+00  0.00000000E+00  0.00000000E+00
  0.00000000E+00  0.00000000E+00  0.00000000E+00
  0.00000000E+00  0.00000000E+00  0.00000000E+00
  0.00000000E+00  0.00000000E+00  0.00000000E+00
  0.00000000E+00  0.00000000E+00  0.00000000E+00
  0.00000000E+00  0.00000000E+00  0.00000000E+00
  0.00000000E+00  0.00000000E+00  0.00000000E+00
  0.00000000E+00  0.00000000E+00  0.00000000E+00
  0.00000000E+00  0.00000000E+00  0.00000000E+00
  0.00000000E+00  0.00000000E+00  0.00000000E+00
  0.00000000E+00  0.00000000E+00  0.00000000E+00
  0.00000000E+00  0.00000000E+00  0.00000000E+00
  0.00000000E+00  0.00000000E+00  0.00000000E+00
  0.00000000E+00  0.00000000E+00  0.00000000E+00
  0.00000000E+00  0.00000000E+00  0.00000000E+00
  0.00000000E+00  0.00000000E+00  0.00000000E+00
  0.00000000E+00  0.00000000E+00  0.00000000E+00
  0.00000000E+00  0.00000000E+00  0.00000000E+00
  0.00000000E+00  0.00000000E+00  0.00000000E+00
  0.00000000E+00  0.00000000E+00  0.00000000E+00
  0.00000000E+00  0.00000000E+00  0.00000000E+00
  0.00000000E+00  0.00000000E+00  0.00000000E+00
  0.00000000E+00  0.00000000E+00  0.00000000E+00
  0.00000000E+00  0.00000000E+00  0.00000000E+00
  0.00000000E+00  0.00000000E+00  0.00000000E+00
  0.00000000E+00  0.00000000E+00  0.00000000E+00
  0.00000000E+00  0.00000000E+00  0.00000000E+00
  0.00000000E+00  0.00000000E+00  0.00000000E+00
  0.00000000E+00  0.00000000E+00  0.00000000E+00
  0.00000000E+00  0.00000000E+00  0.00000000E+00
  0.00000000E+00  0.00000000E+00  0.00000000E+00
  0.00000000E+00  0.00000000E+00  0.00000000E+00
  0.00000000E+00  0.00000000E+00  0.00000000E+00
  0.00000000E+00  0.00000000E+00  0.00000000E+00
  0.00000000E+00  0.00000000E+00  0.00000000E+00
  0.00000000E+00  0.00000000E+00  0.00000000E+00
  0.00000000E+00  0.00000000E+00  0.00000000E+00
  0.00000000E+00  0.00000000E+00  0.00000000E+00
  0.00000000E+00  0.00000000E+00  0.00000000E+00
  0.00000000E+00  0.00000000E+00  0.00000000E+00
  0.00000000E+00  0.00000000E+00  0.00000000E+00
  0.00000000E+00  0.00000000E+00  0.00000000E+00
  0.00000000E+00  0.00000000E+00  0.00000000E+00
  0.00000000E+00  0.00000000E+00  0.00000000E+00
  0.00000000E+00  0.00000000E+00  0.00000000E+00
  0.00000000E+00  0.00000000E+00  0.00000000E+00
  0.00000000E+00  0.00000000E+00  0.00000000E+00
  0.00000000E+00  0.00000000E+00  0.00000000E+00
  0.00000000E+00  0.00000000E+00  0.00000000E+00
  0.00000000E+00  0.00000000E+00  0.00000000E+00
  0.00000000E+00  0.00000000E+00  0.00000000E+00
  0.00000000E+00  0.00000000E+00  0.00000000E+00
  0.00000000E+00  0.00000000E+00  0.00000000E+00
  0.00000000E+00  0.00000000E+00  0.00000000E+00
  0.00000000E+00  0.00000000E+00  0.00000000E+00
  0.00000000E+00  0.00000000E+00  0.00000000E+00
  0.00000000E+00  0.00000000E+00  0.00000000E+00
  0.00000000E+00  0.00000000E+00  0.00000000E+00
  0.00000000E+00  0.00000000E+00  0.00000000E+00
  0.00000000E+00  0.00000000E+00  0.00000000E+00
  0.00000000E+00  0.00000000E+00  0.00000000E+00
  0.00000000E+00  0.00000000E+00  0.00000000E+00
  0.00000000E+00  0.00000000E+00  0.00000000E+00
  0.00000000E+00  0.00000000E+00  0.00000000E+00
  0.00000000E+00  0.00000000E+00  0.00000000E+00
  0.00000000E+00  0.00000000E+00  0.00000000E+00
  0.00000000E+00  0.00000000E+00  0.00000000E+00
  0.00000000E+00  0.00000000E+00  0.00000000E+00
  0.00000000E+00  0.00000000E+00  0.00000000E+00
