Primitive Cell                          
   1.00000000000000     
    10.8767781367943179    0.0007100665555885   -0.0182965842584219
     0.0107937647087250    8.7449929587105064   -0.0001480141168053
    -0.1109123255777013   -0.0169111177762624   12.5190460863403334
   Si   Zr   O    Li
    16     8    56    16
Selective dynamics
Direct
  0.6718486586476130  0.5632980221065358  0.0772601550222720   T   T   T
  0.8529725286838867  0.0669889052428545  0.0923125832590269   T   T   T
  0.1560088251983551  0.8645762722519045  0.1669548943859346   T   T   T
  0.3372792162233813  0.3638340374132995  0.1838702033820570   T   T   T
  0.6032120512666762  0.8562616976681910  0.3441701660459417   T   T   T
  0.8924369251987554  0.3538144162734272  0.3585407136815302   T   T   T
  0.1131807974640539  0.8545862003219508  0.4013255797313089   T   T   T
  0.4042086441229417  0.3546522449952410  0.4155889085707868   T   T   T
  0.6693979770911064  0.8644086788216343  0.5765216830464676   T   T   T
  0.8519310004899521  0.3632941763895015  0.5936517956111899   T   T   T
  0.1559774424782164  0.5674971141894205  0.6658168530071339   T   T   T
  0.3379216622577135  0.0653324192064612  0.6820364935709440   T   T   T
  0.6042575716676148  0.5728292908287569  0.8454124550282132   T   T   T
  0.8948317243725956  0.0770242438276738  0.8570542630432070   T   T   T
  0.1131260071042371  0.5760329084247584  0.9004181525847953   T   T   T
  0.4047030439845491  0.0736901211585391  0.9141160821668133   T   T   T
  0.1272657197188795  0.2112399340320501  0.0124371121901727   T   T   T
  0.3911216810621985  0.7074226326216887  0.0232966442212659   T   T   T
  0.6194151369873425  0.2254022836790026  0.2363604301835742   T   T   T
  0.8820419973886362  0.7159592201010943  0.2467521352913469   T   T   T
  0.1265217762256092  0.2175590131992444  0.5121573496446085   T   T   T
  0.3894877394285802  0.7245772883793471  0.5223022562253865   T   T   T
  0.6184576979361315  0.2050197166507177  0.7364822050910322   T   T   T
  0.8803976846799392  0.7134721790813100  0.7465985912877180   T   T   T
  0.4320570509666789  0.9473842673374556  0.0088475184648298   T   T   T
  0.1361779448488095  0.9975424598532165  0.0788503336849316   T   T   T
  0.5724540851108244  0.7028499660277538  0.0849818301692703   T   T   T
  0.8138409473123530  0.6246778398512737  0.0907562232402944   T   T   T
  0.7094850113557388  0.1268300267348923  0.0950766566616367   T   T   T
  0.3490483924545749  0.5086174010359799  0.1019268148899968   T   T   T
  0.9501416097446566  0.2088602114831043  0.1046882715989001   T   T   T
  0.0616728299854794  0.7194021773016326  0.1549780734398019   T   T   T
  0.6481273689960997  0.4269706476023462  0.1627266401936917   T   T   T
  0.2999489326901495  0.8058123415867985  0.1653894341550340   T   T   T
  0.1956590418899740  0.3023671776614865  0.1667848149017787   T   T   T
  0.4369694509300034  0.2266123418875439  0.1729323811965099   T   T   T
  0.8728433247287114  0.9294131457713306  0.1769454370269156   T   T   T
  0.5747992159161516  0.9823432246027104  0.2497234517026275   T   T   T
  0.9110950031977207  0.4786635311467135  0.2642003548182931   T   T   T
  0.1368884333584081  0.9493621420468700  0.2864892568796919   T   T   T
  0.3535723388574110  0.4460376488483695  0.3047417644504500   T   T   T
  0.7145972226670370  0.7400323184629308  0.3114588256707527   T   T   T
  0.7749489647160845  0.2401648713049800  0.3362893871955660   T   T   T
  0.0200340211957298  0.2561525150294639  0.3758083248471565   T   T   T
  0.4763039661845492  0.7681006929448427  0.3752643027378239   T   T   T
  0.5317141145652801  0.2686322970184671  0.3836263422300927   T   T   T
  0.9869238906631097  0.7552055210421029  0.3840879715342917   T   T   T
  0.2323062979889577  0.7436256141825589  0.4242819554590937   T   T   T
  0.2942430649276259  0.2364127968234777  0.4477048983118379   T   T   T
  0.6523246479584782  0.9475907169339270  0.4559201422619493   T   T   T
  0.8686238302566418  0.4475101138456437  0.4738960570663489   T   T   T
  0.0912034422788321  0.9791729358510073  0.4962471284315236   T   T   T
  0.4314744953018602  0.4815399405089504  0.5099971451811951   T   T   T
  0.1373203388610366  0.4317900124783381  0.5793788335324198   T   T   T
  0.5714882628221043  0.7246773197629680  0.5850730999322054   T   T   T
  0.8117741824513828  0.8036371943207532  0.5912784748574256   T   T   T
  0.7090137696103216  0.3018130340559160  0.5952022094341136   T   T   T
  0.3577811261935082  0.9262745266479701  0.5972407765479448   T   T   T
  0.9495724129222626  0.2215932138379262  0.6058229110180040   T   T   T
  0.0582538285651218  0.7091116386564503  0.6540089562544309   T   T   T
  0.6503829361436492  0.0035393794395471  0.6614508359732205   T   T   T
  0.2989600917586928  0.6286125394684002  0.6646597573966839   T   T   T
  0.1956150451682426  0.1260491890507366  0.6676391603403705   T   T   T
  0.4361875270555258  0.2049294079206823  0.6744174223036303   T   T   T
  0.8706690340948094  0.4990279397161980  0.6800897250801063   T   T   T
  0.5762678672331624  0.4476009451290303  0.7502238173054679   T   T   T
  0.9162479748982594  0.9520273198086479  0.7622543432198225   T   T   T
  0.1385506284758850  0.4827329291393635  0.7856282618424391   T   T   T
  0.3549150239279593  0.9817730264004353  0.8028686341211196   T   T   T
  0.7138569388687722  0.6917264840326456  0.8134806477557429   T   T   T
  0.7761565992931697  0.1885725219465467  0.8339945767675296   T   T   T
  0.0215485772833601  0.1753958422186800  0.8748014849711950   T   T   T
  0.4760425028466699  0.6588912169585374  0.8766441617022459   T   T   T
  0.5325513327658846  0.1598531419023134  0.8838273075657208   T   T   T
  0.9875507114278635  0.6769455878925058  0.8832571352762368   T   T   T
  0.2323884553968378  0.6853261014811793  0.9267035397442828   T   T   T
  0.2944893540788289  0.1916294066579377  0.9465612230833802   T   T   T
  0.6540668469219374  0.4805714598703490  0.9563164327234034   T   T   T
  0.8699787010668645  0.9835870807509441  0.9718598914898223   T   T   T
  0.0891946199187210  0.4509909533861284  0.9948124881156509   T   T   T
  0.9263371143342822  0.7681152396670754  0.0139792571272224   T   T   T
  0.6097601396617117  0.9235978879769051  0.0918260000816209   T   T   T
  0.9107465931173012  0.4254428633629566  0.1104687912589077   T   T   T
  0.1507886011928030  0.5303752448606319  0.1275979823622961   T   T   T
  0.4014342453622483  0.0063182508426415  0.1703243206756576   T   T   T
  0.0794872092840246  0.1670663453713952  0.2448829600737985   T   T   T
  0.3447722597187136  0.6805455305495975  0.2917227854526439   T   T   T
  0.6627659078433483  0.1805229356803619  0.4673297585837742   T   T   T
  0.9262289295783812  0.6636890033074740  0.5137230226278270   T   T   T
  0.6072502384746642  0.5043038880617086  0.5901141842175668   T   T   T
  0.8864232299081686  0.0154614269664036  0.6156756559696506   T   T   T
  0.1195278453611013  0.9158630947600892  0.6432886975965498   T   T   T
  0.4002779486654740  0.4253690811088076  0.6697705281511622   T   T   T
  0.0815066803146676  0.2662757103412596  0.7447486718116252   T   T   T
  0.3457307495635767  0.7486674626391929  0.7920078163043816   T   T   T
  0.6643613427262893  0.2481050863686830  0.9674296830589086   T   T   T
 
  0.00000000E+00  0.00000000E+00  0.00000000E+00
  0.00000000E+00  0.00000000E+00  0.00000000E+00
  0.00000000E+00  0.00000000E+00  0.00000000E+00
  0.00000000E+00  0.00000000E+00  0.00000000E+00
  0.00000000E+00  0.00000000E+00  0.00000000E+00
  0.00000000E+00  0.00000000E+00  0.00000000E+00
  0.00000000E+00  0.00000000E+00  0.00000000E+00
  0.00000000E+00  0.00000000E+00  0.00000000E+00
  0.00000000E+00  0.00000000E+00  0.00000000E+00
  0.00000000E+00  0.00000000E+00  0.00000000E+00
  0.00000000E+00  0.00000000E+00  0.00000000E+00
  0.00000000E+00  0.00000000E+00  0.00000000E+00
  0.00000000E+00  0.00000000E+00  0.00000000E+00
  0.00000000E+00  0.00000000E+00  0.00000000E+00
  0.00000000E+00  0.00000000E+00  0.00000000E+00
  0.00000000E+00  0.00000000E+00  0.00000000E+00
  0.00000000E+00  0.00000000E+00  0.00000000E+00
  0.00000000E+00  0.00000000E+00  0.00000000E+00
  0.00000000E+00  0.00000000E+00  0.00000000E+00
  0.00000000E+00  0.00000000E+00  0.00000000E+00
  0.00000000E+00  0.00000000E+00  0.00000000E+00
  0.00000000E+00  0.00000000E+00  0.00000000E+00
  0.00000000E+00  0.00000000E+00  0.00000000E+00
  0.00000000E+00  0.00000000E+00  0.00000000E+00
  0.00000000E+00  0.00000000E+00  0.00000000E+00
  0.00000000E+00  0.00000000E+00  0.00000000E+00
  0.00000000E+00  0.00000000E+00  0.00000000E+00
  0.00000000E+00  0.00000000E+00  0.00000000E+00
  0.00000000E+00  0.00000000E+00  0.00000000E+00
  0.00000000E+00  0.00000000E+00  0.00000000E+00
  0.00000000E+00  0.00000000E+00  0.00000000E+00
  0.00000000E+00  0.00000000E+00  0.00000000E+00
  0.00000000E+00  0.00000000E+00  0.00000000E+00
  0.00000000E+00  0.00000000E+00  0.00000000E+00
  0.00000000E+00  0.00000000E+00  0.00000000E+00
  0.00000000E+00  0.00000000E+00  0.00000000E+00
  0.00000000E+00  0.00000000E+00  0.00000000E+00
  0.00000000E+00  0.00000000E+00  0.00000000E+00
  0.00000000E+00  0.00000000E+00  0.00000000E+00
  0.00000000E+00  0.00000000E+00  0.00000000E+00
  0.00000000E+00  0.00000000E+00  0.00000000E+00
  0.00000000E+00  0.00000000E+00  0.00000000E+00
  0.00000000E+00  0.00000000E+00  0.00000000E+00
  0.00000000E+00  0.00000000E+00  0.00000000E+00
  0.00000000E+00  0.00000000E+00  0.00000000E+00
  0.00000000E+00  0.00000000E+00  0.00000000E+00
  0.00000000E+00  0.00000000E+00  0.00000000E+00
  0.00000000E+00  0.00000000E+00  0.00000000E+00
  0.00000000E+00  0.00000000E+00  0.00000000E+00
  0.00000000E+00  0.00000000E+00  0.00000000E+00
  0.00000000E+00  0.00000000E+00  0.00000000E+00
  0.00000000E+00  0.00000000E+00  0.00000000E+00
  0.00000000E+00  0.00000000E+00  0.00000000E+00
  0.00000000E+00  0.00000000E+00  0.00000000E+00
  0.00000000E+00  0.00000000E+00  0.00000000E+00
  0.00000000E+00  0.00000000E+00  0.00000000E+00
  0.00000000E+00  0.00000000E+00  0.00000000E+00
  0.00000000E+00  0.00000000E+00  0.00000000E+00
  0.00000000E+00  0.00000000E+00  0.00000000E+00
  0.00000000E+00  0.00000000E+00  0.00000000E+00
  0.00000000E+00  0.00000000E+00  0.00000000E+00
  0.00000000E+00  0.00000000E+00  0.00000000E+00
  0.00000000E+00  0.00000000E+00  0.00000000E+00
  0.00000000E+00  0.00000000E+00  0.00000000E+00
  0.00000000E+00  0.00000000E+00  0.00000000E+00
  0.00000000E+00  0.00000000E+00  0.00000000E+00
  0.00000000E+00  0.00000000E+00  0.00000000E+00
  0.00000000E+00  0.00000000E+00  0.00000000E+00
  0.00000000E+00  0.00000000E+00  0.00000000E+00
  0.00000000E+00  0.00000000E+00  0.00000000E+00
  0.00000000E+00  0.00000000E+00  0.00000000E+00
  0.00000000E+00  0.00000000E+00  0.00000000E+00
  0.00000000E+00  0.00000000E+00  0.00000000E+00
  0.00000000E+00  0.00000000E+00  0.00000000E+00
  0.00000000E+00  0.00000000E+00  0.00000000E+00
  0.00000000E+00  0.00000000E+00  0.00000000E+00
  0.00000000E+00  0.00000000E+00  0.00000000E+00
  0.00000000E+00  0.00000000E+00  0.00000000E+00
  0.00000000E+00  0.00000000E+00  0.00000000E+00
  0.00000000E+00  0.00000000E+00  0.00000000E+00
  0.00000000E+00  0.00000000E+00  0.00000000E+00
  0.00000000E+00  0.00000000E+00  0.00000000E+00
  0.00000000E+00  0.00000000E+00  0.00000000E+00
  0.00000000E+00  0.00000000E+00  0.00000000E+00
  0.00000000E+00  0.00000000E+00  0.00000000E+00
  0.00000000E+00  0.00000000E+00  0.00000000E+00
  0.00000000E+00  0.00000000E+00  0.00000000E+00
  0.00000000E+00  0.00000000E+00  0.00000000E+00
  0.00000000E+00  0.00000000E+00  0.00000000E+00
  0.00000000E+00  0.00000000E+00  0.00000000E+00
  0.00000000E+00  0.00000000E+00  0.00000000E+00
  0.00000000E+00  0.00000000E+00  0.00000000E+00
  0.00000000E+00  0.00000000E+00  0.00000000E+00
  0.00000000E+00  0.00000000E+00  0.00000000E+00
  0.00000000E+00  0.00000000E+00  0.00000000E+00
  0.00000000E+00  0.00000000E+00  0.00000000E+00
