Primitive Cell                          
   1.00000000000000     
     7.6865791066322116   -0.0041069621052678   -0.0788246122896858
     0.0023703822632858    7.7019920056028806    0.0247781788443541
     0.1759919261298354   -0.0805674963140224   22.2712981879597720
   Ta   Si   O    Li
    16     8    64    16
Selective dynamics
Direct
  0.7834264956907617  0.5314352823738844  0.1839820849675249   T   T   T
  0.2833969647833499  0.0314509165822514  0.1839804314790712   T   T   T
  0.2840760232953841  0.5301786825202157  0.1895349278419474   T   T   T
  0.7839586222984849  0.0301598097718596  0.1895360055619051   T   T   T
  0.5331189364956970  0.3039610103795809  0.4338782631879923   T   T   T
  0.0330619600127449  0.8038850880964574  0.4338871199708478   T   T   T
  0.0337492359830378  0.3050670703754790  0.4395874473624914   T   T   T
  0.5337017744215302  0.8052051749941072  0.4396006032572970   T   T   T
  0.2832776666554153  0.5313038947235071  0.6839681579038839   T   T   T
  0.7832967102819950  0.0313063192287473  0.6839769177538457   T   T   T
  0.7837661208099647  0.5300797186415025  0.6895367000881336   T   T   T
  0.2837548846163713  0.0300391015523829  0.6895383447606349   T   T   T
  0.5331328339149408  0.8038501210789661  0.9339113722588053   T   T   T
  0.0331491371138810  0.3038666103944152  0.9339118906899628   T   T   T
  0.5337821671084910  0.3050160300958140  0.9395776452722444   T   T   T
  0.0337734858872025  0.8050445170911260  0.9395855875291161   T   T   T
  0.5376381463933129  0.0461795479136740  0.0618001541425741   T   T   T
  0.0377084965896799  0.5461491188669712  0.0618105848159729   T   T   T
  0.7879245211176382  0.2892575299921845  0.3118355807574460   T   T   T
  0.2879090755277645  0.7893055320910349  0.3118361198068698   T   T   T
  0.0374991996373950  0.0460577843139021  0.5617792764578553   T   T   T
  0.5375169636157366  0.5461074493343361  0.5617804998333469   T   T   T
  0.2877975803311230  0.2891213302721809  0.8118343925509706   T   T   T
  0.7878038241263496  0.7891326548752673  0.8118447881654305   T   T   T
  0.5897651586377037  0.2198491807540677  0.0234151963349163   T   T   T
  0.0897987988117777  0.7198057689974959  0.0234144508007077   T   T   T
  0.4999999367351151  0.8661370986439394  0.0240058535778402   T   T   T
  0.0000621019442235  0.3661129668585659  0.0240201398481901   T   T   T
  0.3597887628340573  0.0917424421001769  0.0991689279709576   T   T   T
  0.8598555810052559  0.5917233855398152  0.0991684066893015   T   T   T
  0.2145388123194607  0.5017263448723952  0.1007241440600808   T   T   T
  0.7144816619168353  0.0017019841675250  0.1007245521793152   T   T   T
  0.3023879188575407  0.7897844154919724  0.1629129286927835   T   T   T
  0.8023781462439601  0.2897595910084405  0.1629100824404972   T   T   T
  0.5380997612880591  0.5306532901121273  0.1695761748354627   T   T   T
  0.0380511555947578  0.0306739483796292  0.1695550918501141   T   T   T
  0.2801811828593230  0.2876384636084026  0.2045578085402227   T   T   T
  0.7801802502210080  0.7876192915376166  0.2045519781135212   T   T   T
  0.0388905768593588  0.5510690007764367  0.2104736544899950   T   T   T
  0.5388365605422294  0.0510901428120292  0.2104667799743396   T   T   T
  0.3398089672302049  0.6155312571078184  0.2733548132523040   T   T   T
  0.8397875092415603  0.1154985727916795  0.2733546201239179   T   T   T
  0.7502113576747789  0.4692607699696936  0.2741165111287103   T   T   T
  0.2501744324073769  0.9692805566329810  0.2741101448219041   T   T   T
  0.1102728542920985  0.7434336192982300  0.3491820665552652   T   T   T
  0.6102618114020828  0.2434174792012058  0.3491826640820506   T   T   T
  0.9648942241310721  0.3337406001873688  0.3507015333520300   T   T   T
  0.4649019624656461  0.8338127920287377  0.3506971782830988   T   T   T
  0.5518533965394496  0.5454710930541466  0.4128564817195297   T   T   T
  0.0518735661435912  0.0454221637607901  0.4128656822949566   T   T   T
  0.2880425034537595  0.3038272303118106  0.4195186359944287   T   T   T
  0.7880349735341312  0.8038318398103996  0.4195258052450370   T   T   T
  0.0306863110391902  0.5477216139537404  0.4544877633349245   T   T   T
  0.5306591544792170  0.0477571911347070  0.4545181198272488   T   T   T
  0.7888947786056306  0.2847197797783991  0.4604882238618515   T   T   T
  0.2888950577945124  0.7847068010713301  0.4604959003292066   T   T   T
  0.0896583934645889  0.2197517769698152  0.5234323058271428   T   T   T
  0.5896567590474149  0.7198204547792386  0.5234388258524376   T   T   T
  0.4999309204798124  0.3661547180980591  0.5240019928004997   T   T   T
  0.9999103032876562  0.8661257887993656  0.5240018666178727   T   T   T
  0.3596752354067760  0.5916619393764719  0.5991576312410700   T   T   T
  0.8596699486822530  0.0916199155336415  0.5991626092470455   T   T   T
  0.7143319659845346  0.5016617478314203  0.6007145439155224   T   T   T
  0.2143163803202910  0.0016076424889135  0.6007209280460373   T   T   T
  0.8022512298905866  0.7896442124560252  0.6629072793192634   T   T   T
  0.3022410808803642  0.2896544901547173  0.6629007030116725   T   T   T
  0.0378582601874271  0.5305658841091798  0.6695829715771353   T   T   T
  0.5378683179331887  0.0305590922864099  0.6695846401022507   T   T   T
  0.2799937546892508  0.7874776039935085  0.7045300044066991   T   T   T
  0.7800005801440548  0.2874829774623961  0.7045246463038382   T   T   T
  0.5386866016034446  0.5509942296744086  0.7104829805303936   T   T   T
  0.0387074497031961  0.0510022100860539  0.7104872761831302   T   T   T
  0.8396599525107220  0.6153649048945127  0.7733613463877802   T   T   T
  0.3396714938261525  0.1153814455878432  0.7733574526423581   T   T   T
  0.2500680593702143  0.4691566174443267  0.7741085698605943   T   T   T
  0.7500686793447784  0.9691629933319561  0.7741085771817566   T   T   T
  0.6101943298893673  0.7432966579171705  0.8492050785039353   T   T   T
  0.1102063711249670  0.2432986849677974  0.8492087840889582   T   T   T
  0.4648206367950678  0.3336475504149590  0.8506857981056442   T   T   T
  0.9648333605869865  0.8336077559313182  0.8506827538624577   T   T   T
  0.5519990446204446  0.0453860853298309  0.9128506972101391   T   T   T
  0.0519906364789122  0.5453788071148153  0.9128578459345960   T   T   T
  0.2880332074951895  0.8038657265968467  0.9195396787358732   T   T   T
  0.7880277329829184  0.3038680887625063  0.9195413781715587   T   T   T
  0.5305780870570942  0.5476430698788093  0.9544856193957827   T   T   T
  0.0305697670682505  0.0476275749077431  0.9544858085754200   T   T   T
  0.2889547763429405  0.2845726693111672  0.9604979100296589   T   T   T
  0.7889389168737466  0.7845705167150854  0.9605024236554556   T   T   T
  0.2586468067387457  0.2818846361551408  0.0497069025593575   T   T   T
  0.7585271114950487  0.7817999574960766  0.0497152970804038   T   T   T
  0.8121147549282384  0.2541849631193855  0.0731979532900198   T   T   T
  0.3120431343010210  0.7543047935603653  0.0731989839720200   T   T   T
  0.0092408421818746  0.5533596535628007  0.2996914866096247   T   T   T
  0.5090856454742152  0.0534863198561979  0.2996895527866172   T   T   T
  0.5625946621840328  0.5818100065050373  0.3232181185633962   T   T   T
  0.0624841416550126  0.0816617509629651  0.3232271115395662   T   T   T
  0.2584210844744703  0.7817799833599253  0.5497119544250850   T   T   T
  0.7584273049927148  0.2817981989627611  0.5497086316697093   T   T   T
  0.3120348136920654  0.2541126797418869  0.5731814924660412   T   T   T
  0.8120322986415403  0.7541131638351075  0.5731974811266554   T   T   T
  0.5089772056286961  0.5533838651425071  0.7996817229796847   T   T   T
  0.0090160844443545  0.0533570552296965  0.7996927953411017   T   T   T
  0.5624126184791578  0.0815660235391320  0.8232061412341238   T   T   T
  0.0623853755238883  0.5815225237001584  0.8232109729385826   T   T   T
 
  0.00000000E+00  0.00000000E+00  0.00000000E+00
  0.00000000E+00  0.00000000E+00  0.00000000E+00
  0.00000000E+00  0.00000000E+00  0.00000000E+00
  0.00000000E+00  0.00000000E+00  0.00000000E+00
  0.00000000E+00  0.00000000E+00  0.00000000E+00
  0.00000000E+00  0.00000000E+00  0.00000000E+00
  0.00000000E+00  0.00000000E+00  0.00000000E+00
  0.00000000E+00  0.00000000E+00  0.00000000E+00
  0.00000000E+00  0.00000000E+00  0.00000000E+00
  0.00000000E+00  0.00000000E+00  0.00000000E+00
  0.00000000E+00  0.00000000E+00  0.00000000E+00
  0.00000000E+00  0.00000000E+00  0.00000000E+00
  0.00000000E+00  0.00000000E+00  0.00000000E+00
  0.00000000E+00  0.00000000E+00  0.00000000E+00
  0.00000000E+00  0.00000000E+00  0.00000000E+00
  0.00000000E+00  0.00000000E+00  0.00000000E+00
  0.00000000E+00  0.00000000E+00  0.00000000E+00
  0.00000000E+00  0.00000000E+00  0.00000000E+00
  0.00000000E+00  0.00000000E+00  0.00000000E+00
  0.00000000E+00  0.00000000E+00  0.00000000E+00
  0.00000000E+00  0.00000000E+00  0.00000000E+00
  0.00000000E+00  0.00000000E+00  0.00000000E+00
  0.00000000E+00  0.00000000E+00  0.00000000E+00
  0.00000000E+00  0.00000000E+00  0.00000000E+00
  0.00000000E+00  0.00000000E+00  0.00000000E+00
  0.00000000E+00  0.00000000E+00  0.00000000E+00
  0.00000000E+00  0.00000000E+00  0.00000000E+00
  0.00000000E+00  0.00000000E+00  0.00000000E+00
  0.00000000E+00  0.00000000E+00  0.00000000E+00
  0.00000000E+00  0.00000000E+00  0.00000000E+00
  0.00000000E+00  0.00000000E+00  0.00000000E+00
  0.00000000E+00  0.00000000E+00  0.00000000E+00
  0.00000000E+00  0.00000000E+00  0.00000000E+00
  0.00000000E+00  0.00000000E+00  0.00000000E+00
  0.00000000E+00  0.00000000E+00  0.00000000E+00
  0.00000000E+00  0.00000000E+00  0.00000000E+00
  0.00000000E+00  0.00000000E+00  0.00000000E+00
  0.00000000E+00  0.00000000E+00  0.00000000E+00
  0.00000000E+00  0.00000000E+00  0.00000000E+00
  0.00000000E+00  0.00000000E+00  0.00000000E+00
  0.00000000E+00  0.00000000E+00  0.00000000E+00
  0.00000000E+00  0.00000000E+00  0.00000000E+00
  0.00000000E+00  0.00000000E+00  0.00000000E+00
  0.00000000E+00  0.00000000E+00  0.00000000E+00
  0.00000000E+00  0.00000000E+00  0.00000000E+00
  0.00000000E+00  0.00000000E+00  0.00000000E+00
  0.00000000E+00  0.00000000E+00  0.00000000E+00
  0.00000000E+00  0.00000000E+00  0.00000000E+00
  0.00000000E+00  0.00000000E+00  0.00000000E+00
  0.00000000E+00  0.00000000E+00  0.00000000E+00
  0.00000000E+00  0.00000000E+00  0.00000000E+00
  0.00000000E+00  0.00000000E+00  0.00000000E+00
  0.00000000E+00  0.00000000E+00  0.00000000E+00
  0.00000000E+00  0.00000000E+00  0.00000000E+00
  0.00000000E+00  0.00000000E+00  0.00000000E+00
  0.00000000E+00  0.00000000E+00  0.00000000E+00
  0.00000000E+00  0.00000000E+00  0.00000000E+00
  0.00000000E+00  0.00000000E+00  0.00000000E+00
  0.00000000E+00  0.00000000E+00  0.00000000E+00
  0.00000000E+00  0.00000000E+00  0.00000000E+00
  0.00000000E+00  0.00000000E+00  0.00000000E+00
  0.00000000E+00  0.00000000E+00  0.00000000E+00
  0.00000000E+00  0.00000000E+00  0.00000000E+00
  0.00000000E+00  0.00000000E+00  0.00000000E+00
  0.00000000E+00  0.00000000E+00  0.00000000E+00
  0.00000000E+00  0.00000000E+00  0.00000000E+00
  0.00000000E+00  0.00000000E+00  0.00000000E+00
  0.00000000E+00  0.00000000E+00  0.00000000E+00
  0.00000000E+00  0.00000000E+00  0.00000000E+00
  0.00000000E+00  0.00000000E+00  0.00000000E+00
  0.00000000E+00  0.00000000E+00  0.00000000E+00
  0.00000000E+00  0.00000000E+00  0.00000000E+00
  0.00000000E+00  0.00000000E+00  0.00000000E+00
  0.00000000E+00  0.00000000E+00  0.00000000E+00
  0.00000000E+00  0.00000000E+00  0.00000000E+00
  0.00000000E+00  0.00000000E+00  0.00000000E+00
  0.00000000E+00  0.00000000E+00  0.00000000E+00
  0.00000000E+00  0.00000000E+00  0.00000000E+00
  0.00000000E+00  0.00000000E+00  0.00000000E+00
  0.00000000E+00  0.00000000E+00  0.00000000E+00
  0.00000000E+00  0.00000000E+00  0.00000000E+00
  0.00000000E+00  0.00000000E+00  0.00000000E+00
  0.00000000E+00  0.00000000E+00  0.00000000E+00
  0.00000000E+00  0.00000000E+00  0.00000000E+00
  0.00000000E+00  0.00000000E+00  0.00000000E+00
  0.00000000E+00  0.00000000E+00  0.00000000E+00
  0.00000000E+00  0.00000000E+00  0.00000000E+00
  0.00000000E+00  0.00000000E+00  0.00000000E+00
  0.00000000E+00  0.00000000E+00  0.00000000E+00
  0.00000000E+00  0.00000000E+00  0.00000000E+00
  0.00000000E+00  0.00000000E+00  0.00000000E+00
  0.00000000E+00  0.00000000E+00  0.00000000E+00
  0.00000000E+00  0.00000000E+00  0.00000000E+00
  0.00000000E+00  0.00000000E+00  0.00000000E+00
  0.00000000E+00  0.00000000E+00  0.00000000E+00
  0.00000000E+00  0.00000000E+00  0.00000000E+00
  0.00000000E+00  0.00000000E+00  0.00000000E+00
  0.00000000E+00  0.00000000E+00  0.00000000E+00
  0.00000000E+00  0.00000000E+00  0.00000000E+00
  0.00000000E+00  0.00000000E+00  0.00000000E+00
  0.00000000E+00  0.00000000E+00  0.00000000E+00
  0.00000000E+00  0.00000000E+00  0.00000000E+00
  0.00000000E+00  0.00000000E+00  0.00000000E+00
  0.00000000E+00  0.00000000E+00  0.00000000E+00
