Primitive Cell                          
   1.00000000000000     
     9.7235685901298972    0.0077318336349636   -0.0063863668413511
     0.0404026909986837    7.0001208682078007   -0.0013164313876979
    -0.3544738396264792    0.0134431802837151    8.0032408096326986
   P    Ga   O    Li
     8     4    28     4
Selective dynamics
Direct
  0.5332153952913927  0.2602700623175167  0.1436882920997178   T   T   T
  0.0267121339605794  0.9746924222844839  0.1480747541728391   T   T   T
  0.0715699752151409  0.6413165450289995  0.3638028804590832   T   T   T
  0.5678154363999610  0.5804298871202036  0.3666454212606709   T   T   T
  0.8059872162420376  0.1417291255057691  0.6619600525050515   T   T   T
  0.3026272697571173  0.0811404839043135  0.6643703354577610   T   T   T
  0.3470366138547902  0.7477065160122649  0.8800291268562148   T   T   T
  0.8406953354073963  0.4620267284722601  0.8847441479164644   T   T   T
  0.3318921179982297  0.8923608835469352  0.2770320699083086   T   T   T
  0.8375819668260789  0.3276303151032778  0.2837660071919856   T   T   T
  0.5364344812069177  0.3947096037729807  0.7447962791533556   T   T   T
  0.0420788095818807  0.8302725909913988  0.7509168399027573   T   T   T
  0.3242439484948108  0.7737935807381575  0.0638291651107536   T   T   T
  0.8144640828806047  0.4625326420198093  0.0688415372472164   T   T   T
  0.9061415121786354  0.1017870324580912  0.1816262883119535   T   T   T
  0.4019144051246215  0.1547041386356796  0.1894524586243946   T   T   T
  0.5067181830774672  0.4809262305721660  0.1982076359115368   T   T   T
  0.9929436650858321  0.7670399608405845  0.2218788691885436   T   T   T
  0.1587455065660848  0.0407054742849340  0.2453780568418651   T   T   T
  0.6543496836910094  0.1924285703289641  0.2607229867217740   T   T   T
  0.0364998969451378  0.4342911470606552  0.3135049099091560   T   T   T
  0.5202724518164956  0.7905698174051707  0.3445967871149733   T   T   T
  0.2274416170762734  0.6699537550874410  0.3618908043110167   T   T   T
  0.7264599145411879  0.5652319401886245  0.3745530563566604   T   T   T
  0.3636504567013503  0.0305224471258825  0.4969542259972712   T   T   T
  0.5038444415540084  0.4804092702587255  0.5134079201453119   T   T   T
  0.8700702276557237  0.2421223481160268  0.5153840473893752   T   T   T
  0.0104553192815615  0.6921041464907489  0.5311461627160625   T   T   T
  0.6473450693734506  0.1566297481165577  0.6540061285470458   T   T   T
  0.1467478091499643  0.0525222189291341  0.6660656355310550   T   T   T
  0.8535913252125056  0.9315142323535639  0.6837686626022048   T   T   T
  0.3377019008646158  0.2880598592356023  0.7147438968069082   T   T   T
  0.7194711157385214  0.5297144061986216  0.7677152152168745   T   T   T
  0.2150741798528699  0.6818590915936298  0.7825982256546880   T   T   T
  0.3810506429983960  0.9553442521664479  0.8063116665943113   T   T   T
  0.8669286467989394  0.2411052851708604  0.8305236527125075   T   T   T
  0.9719252044333331  0.5673459961884717  0.8384225525679199   T   T   T
  0.4675696417092752  0.6205131400633306  0.8467332634491811   T   T   T
  0.5596114281466598  0.2601375317404475  0.9596372923751133   T   T   T
  0.0493496180040651  0.9486061644928725  0.9642317232144819   T   T   T
  0.2252824681597829  0.2998728897241705  0.2753296652863284   T   T   T
  0.5653049841647544  0.0487404407297731  0.4474625388071232   T   T   T
  0.8085395381760847  0.6733151990164998  0.5809591294714949   T   T   T
  0.1486738058404740  0.4225044210089450  0.7526622724016434   T   T   T
 
  0.00000000E+00  0.00000000E+00  0.00000000E+00
  0.00000000E+00  0.00000000E+00  0.00000000E+00
  0.00000000E+00  0.00000000E+00  0.00000000E+00
  0.00000000E+00  0.00000000E+00  0.00000000E+00
  0.00000000E+00  0.00000000E+00  0.00000000E+00
  0.00000000E+00  0.00000000E+00  0.00000000E+00
  0.00000000E+00  0.00000000E+00  0.00000000E+00
  0.00000000E+00  0.00000000E+00  0.00000000E+00
  0.00000000E+00  0.00000000E+00  0.00000000E+00
  0.00000000E+00  0.00000000E+00  0.00000000E+00
  0.00000000E+00  0.00000000E+00  0.00000000E+00
  0.00000000E+00  0.00000000E+00  0.00000000E+00
  0.00000000E+00  0.00000000E+00  0.00000000E+00
  0.00000000E+00  0.00000000E+00  0.00000000E+00
  0.00000000E+00  0.00000000E+00  0.00000000E+00
  0.00000000E+00  0.00000000E+00  0.00000000E+00
  0.00000000E+00  0.00000000E+00  0.00000000E+00
  0.00000000E+00  0.00000000E+00  0.00000000E+00
  0.00000000E+00  0.00000000E+00  0.00000000E+00
  0.00000000E+00  0.00000000E+00  0.00000000E+00
  0.00000000E+00  0.00000000E+00  0.00000000E+00
  0.00000000E+00  0.00000000E+00  0.00000000E+00
  0.00000000E+00  0.00000000E+00  0.00000000E+00
  0.00000000E+00  0.00000000E+00  0.00000000E+00
  0.00000000E+00  0.00000000E+00  0.00000000E+00
  0.00000000E+00  0.00000000E+00  0.00000000E+00
  0.00000000E+00  0.00000000E+00  0.00000000E+00
  0.00000000E+00  0.00000000E+00  0.00000000E+00
  0.00000000E+00  0.00000000E+00  0.00000000E+00
  0.00000000E+00  0.00000000E+00  0.00000000E+00
  0.00000000E+00  0.00000000E+00  0.00000000E+00
  0.00000000E+00  0.00000000E+00  0.00000000E+00
  0.00000000E+00  0.00000000E+00  0.00000000E+00
  0.00000000E+00  0.00000000E+00  0.00000000E+00
  0.00000000E+00  0.00000000E+00  0.00000000E+00
  0.00000000E+00  0.00000000E+00  0.00000000E+00
  0.00000000E+00  0.00000000E+00  0.00000000E+00
  0.00000000E+00  0.00000000E+00  0.00000000E+00
  0.00000000E+00  0.00000000E+00  0.00000000E+00
  0.00000000E+00  0.00000000E+00  0.00000000E+00
  0.00000000E+00  0.00000000E+00  0.00000000E+00
  0.00000000E+00  0.00000000E+00  0.00000000E+00
  0.00000000E+00  0.00000000E+00  0.00000000E+00
  0.00000000E+00  0.00000000E+00  0.00000000E+00
