Primitive Cell                          
   1.00000000000000     
    12.0913057275438849   -0.0089585669603326    0.0016628559196416
     0.0626334943591861   10.6194707501073911   -0.0068915814374200
    -0.0024051493699841    0.0064959499504692    8.4850312936333925
   P    Mg   O    Li
    16     8    56    16
Selective dynamics
Direct
  0.8001670387673556  0.0803677131033567  0.1267037928340358   T   T   T
  0.8369810866960279  0.5838314017047495  0.1281023055856778   T   T   T
  0.5934940785385123  0.6249366649675636  0.1436147345079490   T   T   T
  0.0388968992359793  0.1320266216591364  0.1494755493405791   T   T   T
  0.5388517034711100  0.1322232774400618  0.3968651851189691   T   T   T
  0.0936264946459175  0.6250272294595689  0.4031996362231069   T   T   T
  0.3370952367261424  0.5839345528508346  0.4184834592499342   T   T   T
  0.3001871087421648  0.0805861544140569  0.4199541570775409   T   T   T
  0.8373003569925075  0.8757422605842748  0.6264063279827070   T   T   T
  0.8001575916203976  0.3725658426332075  0.6278184241914460   T   T   T
  0.0435794537931926  0.3314462180208864  0.6430011531367370   T   T   T
  0.5986558726304310  0.8239033374070601  0.6494202953722237   T   T   T
  0.0986371070106387  0.8236235688533711  0.8970880288086107   T   T   T
  0.5438101874418351  0.3315922508463984  0.9029207756705659   T   T   T
  0.3002776784130674  0.3727987688057226  0.9187902594111819   T   T   T
  0.3371645072230081  0.8758824913446830  0.9199224551885834   T   T   T
  0.6903037924271871  0.3508618476872769  0.2536452030113310   T   T   T
  0.9658534030225994  0.8542630313922857  0.2575758572779421   T   T   T
  0.4658369392541104  0.8543250631055272  0.2887658803615949   T   T   T
  0.1903809026822287  0.3509399912440330  0.2926161266625371   T   T   T
  0.9467864909483339  0.6049562559513362  0.7536202744293448   T   T   T
  0.6713359460215855  0.1018061803778991  0.7578192091966258   T   T   T
  0.1711409766912340  0.1017488893778307  0.7887468091048575   T   T   T
  0.4468409355300906  0.6053033662808218  0.7927701914795549   T   T   T
  0.2176862709572660  0.8353827371066771  0.9981432953214906   T   T   T
  0.4237688247607494  0.3497798229719464  0.9991376197585140   T   T   T
  0.5077127772432490  0.6127901071347281  0.0164688605050713   T   T   T
  0.0109732892333412  0.8483502665059319  0.0224305016977056   T   T   T
  0.1263747322650701  0.1077348049433553  0.0237156099550191   T   T   T
  0.6297281901277358  0.3439245339726611  0.0298669027956393   T   T   T
  0.7136205094354509  0.6070822201800539  0.0475019157470200   T   T   T
  0.9197165518614341  0.1204746631458846  0.0485591647426276   T   T   T
  0.2195227378741080  0.3815991121586038  0.0552894186510500   T   T   T
  0.4183257095686059  0.8775939956891889  0.0562766337531286   T   T   T
  0.8168242139189203  0.9448105430969562  0.1870806459659420   T   T   T
  0.0415381187123813  0.2665500619916372  0.2123943437885458   T   T   T
  0.6017861496431820  0.7573448992541785  0.2159220324699689   T   T   T
  0.8288224633281445  0.4610757183036327  0.2195338777063256   T   T   T
  0.8550784981419142  0.7027358489263307  0.2271489019093664   T   T   T
  0.7765971245130601  0.1761326038733486  0.2573725880539186   T   T   T
  0.5349063418461313  0.0323865936939924  0.2665147072231875   T   T   T
  0.5881910921711864  0.5209357154472727  0.2699633794389555   T   T   T
  0.0882711221697718  0.5212119218683782  0.2766294493686416   T   T   T
  0.0350216754718744  0.0322861762768696  0.2798882140758820   T   T   T
  0.2765273692852119  0.1760678600052685  0.2889080201331353   T   T   T
  0.3549107954486743  0.7028675578785339  0.3193306546923793   T   T   T
  0.3289237297013372  0.4611003794162016  0.3271392176604238   T   T   T
  0.1018816947752654  0.7574378594534537  0.3306847936764399   T   T   T
  0.5414162951831401  0.2666442877696582  0.3334676447399616   T   T   T
  0.3169663765097610  0.9449065388491533  0.3599126109264077   T   T   T
  0.9183086547582420  0.8774457546481571  0.4899391086745979   T   T   T
  0.7191465447044152  0.3809103874776198  0.4914687036412957   T   T   T
  0.4197452286238601  0.1209379592734479  0.4979351220016142   T   T   T
  0.2137454618028301  0.6070299221677047  0.4991020621785438   T   T   T
  0.1294149502567521  0.3438238668749349  0.5159663395470488   T   T   T
  0.6264286361959606  0.1079538030436282  0.5225443615775731   T   T   T
  0.5110814127403174  0.8483561397401260  0.5238245152477319   T   T   T
  0.0079121073653070  0.6128529734740624  0.5303143306422839   T   T   T
  0.9234425712736041  0.3495690265071687  0.5469895595239365   T   T   T
  0.7177369468803505  0.8354332369065531  0.5483691701785887   T   T   T
  0.4181351821425565  0.5766955897201314  0.5548362669294633   T   T   T
  0.2190462345350639  0.0793663860680027  0.5562914418802691   T   T   T
  0.8204089077453887  0.0111350207787666  0.6871832829296238   T   T   T
  0.5961777801264390  0.6891470215414444  0.7119014254753964   T   T   T
  0.0353691552201028  0.1989116068558729  0.7152077985269898   T   T   T
  0.8083280368314902  0.4948440696206831  0.7203450881037128   T   T   T
  0.7822631979856922  0.2530887463157114  0.7259696027868117   T   T   T
  0.8610926244332191  0.7798108134381678  0.7568747308369979   T   T   T
  0.1026645470849417  0.9229377312384202  0.7661115752755023   T   T   T
  0.0487601239842732  0.4354640536231855  0.7692203469030048   T   T   T
  0.5490019413674290  0.4355771901761685  0.7766081032615233   T   T   T
  0.6026444917197722  0.9233765912827465  0.7801253672428459   T   T   T
  0.3608955185401541  0.7800430925982837  0.7893921604359377   T   T   T
  0.2820022051146580  0.2531349950514965  0.8212027225910461   T   T   T
  0.3084276121342526  0.4948873136985910  0.8258026297730510   T   T   T
  0.5353977002638572  0.1990873504371393  0.8306423641071774   T   T   T
  0.0962103381167694  0.6886607314319804  0.8352245263558515   T   T   T
  0.3201970813653929  0.0112528839803048  0.8591060767329495   T   T   T
  0.7189455130631757  0.0790832091215705  0.9903647949432539   T   T   T
  0.9179173307172874  0.5765667827329537  0.9915982350402857   T   T   T
  0.5689009106531557  0.9779456255895838  0.0238685810471253   T   T   T
  0.0703055408002200  0.4830558078470872  0.0241497901129435   T   T   T
  0.2826878204972516  0.1313515215449002  0.0651242588600880   T   T   T
  0.4589608460924453  0.3966760584010274  0.2232661816041954   T   T   T
  0.2359219978494238  0.8156345253523867  0.2360634136365434   T   T   T
  0.7359642624218807  0.8152659058511773  0.3108011026167716   T   T   T
  0.9590023018886598  0.3963626356712240  0.3226528045938792   T   T   T
  0.7827157411900956  0.1308036858133548  0.4807811369537234   T   T   T
  0.0688730981396759  0.9778691306715572  0.5227899965617837   T   T   T
  0.5697303601564840  0.4811964028596876  0.5231315014792202   T   T   T
  0.3550132655924401  0.8254507208169244  0.5660962623193839   T   T   T
  0.1780517920591507  0.5590290031926344  0.7223333161731134   T   T   T
  0.4010919399760411  0.1413370116244721  0.7359307623659959   T   T   T
  0.9012564937407035  0.1412179176033774  0.8108660966672829   T   T   T
  0.6781589219393709  0.5592157738500632  0.8239003492419243   T   T   T
  0.8550461433118599  0.8246411635216688  0.9801116273977613   T   T   T
 
  0.00000000E+00  0.00000000E+00  0.00000000E+00
  0.00000000E+00  0.00000000E+00  0.00000000E+00
  0.00000000E+00  0.00000000E+00  0.00000000E+00
  0.00000000E+00  0.00000000E+00  0.00000000E+00
  0.00000000E+00  0.00000000E+00  0.00000000E+00
  0.00000000E+00  0.00000000E+00  0.00000000E+00
  0.00000000E+00  0.00000000E+00  0.00000000E+00
  0.00000000E+00  0.00000000E+00  0.00000000E+00
  0.00000000E+00  0.00000000E+00  0.00000000E+00
  0.00000000E+00  0.00000000E+00  0.00000000E+00
  0.00000000E+00  0.00000000E+00  0.00000000E+00
  0.00000000E+00  0.00000000E+00  0.00000000E+00
  0.00000000E+00  0.00000000E+00  0.00000000E+00
  0.00000000E+00  0.00000000E+00  0.00000000E+00
  0.00000000E+00  0.00000000E+00  0.00000000E+00
  0.00000000E+00  0.00000000E+00  0.00000000E+00
  0.00000000E+00  0.00000000E+00  0.00000000E+00
  0.00000000E+00  0.00000000E+00  0.00000000E+00
  0.00000000E+00  0.00000000E+00  0.00000000E+00
  0.00000000E+00  0.00000000E+00  0.00000000E+00
  0.00000000E+00  0.00000000E+00  0.00000000E+00
  0.00000000E+00  0.00000000E+00  0.00000000E+00
  0.00000000E+00  0.00000000E+00  0.00000000E+00
  0.00000000E+00  0.00000000E+00  0.00000000E+00
  0.00000000E+00  0.00000000E+00  0.00000000E+00
  0.00000000E+00  0.00000000E+00  0.00000000E+00
  0.00000000E+00  0.00000000E+00  0.00000000E+00
  0.00000000E+00  0.00000000E+00  0.00000000E+00
  0.00000000E+00  0.00000000E+00  0.00000000E+00
  0.00000000E+00  0.00000000E+00  0.00000000E+00
  0.00000000E+00  0.00000000E+00  0.00000000E+00
  0.00000000E+00  0.00000000E+00  0.00000000E+00
  0.00000000E+00  0.00000000E+00  0.00000000E+00
  0.00000000E+00  0.00000000E+00  0.00000000E+00
  0.00000000E+00  0.00000000E+00  0.00000000E+00
  0.00000000E+00  0.00000000E+00  0.00000000E+00
  0.00000000E+00  0.00000000E+00  0.00000000E+00
  0.00000000E+00  0.00000000E+00  0.00000000E+00
  0.00000000E+00  0.00000000E+00  0.00000000E+00
  0.00000000E+00  0.00000000E+00  0.00000000E+00
  0.00000000E+00  0.00000000E+00  0.00000000E+00
  0.00000000E+00  0.00000000E+00  0.00000000E+00
  0.00000000E+00  0.00000000E+00  0.00000000E+00
  0.00000000E+00  0.00000000E+00  0.00000000E+00
  0.00000000E+00  0.00000000E+00  0.00000000E+00
  0.00000000E+00  0.00000000E+00  0.00000000E+00
  0.00000000E+00  0.00000000E+00  0.00000000E+00
  0.00000000E+00  0.00000000E+00  0.00000000E+00
  0.00000000E+00  0.00000000E+00  0.00000000E+00
  0.00000000E+00  0.00000000E+00  0.00000000E+00
  0.00000000E+00  0.00000000E+00  0.00000000E+00
  0.00000000E+00  0.00000000E+00  0.00000000E+00
  0.00000000E+00  0.00000000E+00  0.00000000E+00
  0.00000000E+00  0.00000000E+00  0.00000000E+00
  0.00000000E+00  0.00000000E+00  0.00000000E+00
  0.00000000E+00  0.00000000E+00  0.00000000E+00
  0.00000000E+00  0.00000000E+00  0.00000000E+00
  0.00000000E+00  0.00000000E+00  0.00000000E+00
  0.00000000E+00  0.00000000E+00  0.00000000E+00
  0.00000000E+00  0.00000000E+00  0.00000000E+00
  0.00000000E+00  0.00000000E+00  0.00000000E+00
  0.00000000E+00  0.00000000E+00  0.00000000E+00
  0.00000000E+00  0.00000000E+00  0.00000000E+00
  0.00000000E+00  0.00000000E+00  0.00000000E+00
  0.00000000E+00  0.00000000E+00  0.00000000E+00
  0.00000000E+00  0.00000000E+00  0.00000000E+00
  0.00000000E+00  0.00000000E+00  0.00000000E+00
  0.00000000E+00  0.00000000E+00  0.00000000E+00
  0.00000000E+00  0.00000000E+00  0.00000000E+00
  0.00000000E+00  0.00000000E+00  0.00000000E+00
  0.00000000E+00  0.00000000E+00  0.00000000E+00
  0.00000000E+00  0.00000000E+00  0.00000000E+00
  0.00000000E+00  0.00000000E+00  0.00000000E+00
  0.00000000E+00  0.00000000E+00  0.00000000E+00
  0.00000000E+00  0.00000000E+00  0.00000000E+00
  0.00000000E+00  0.00000000E+00  0.00000000E+00
  0.00000000E+00  0.00000000E+00  0.00000000E+00
  0.00000000E+00  0.00000000E+00  0.00000000E+00
  0.00000000E+00  0.00000000E+00  0.00000000E+00
  0.00000000E+00  0.00000000E+00  0.00000000E+00
  0.00000000E+00  0.00000000E+00  0.00000000E+00
  0.00000000E+00  0.00000000E+00  0.00000000E+00
  0.00000000E+00  0.00000000E+00  0.00000000E+00
  0.00000000E+00  0.00000000E+00  0.00000000E+00
  0.00000000E+00  0.00000000E+00  0.00000000E+00
  0.00000000E+00  0.00000000E+00  0.00000000E+00
  0.00000000E+00  0.00000000E+00  0.00000000E+00
  0.00000000E+00  0.00000000E+00  0.00000000E+00
  0.00000000E+00  0.00000000E+00  0.00000000E+00
  0.00000000E+00  0.00000000E+00  0.00000000E+00
  0.00000000E+00  0.00000000E+00  0.00000000E+00
  0.00000000E+00  0.00000000E+00  0.00000000E+00
  0.00000000E+00  0.00000000E+00  0.00000000E+00
  0.00000000E+00  0.00000000E+00  0.00000000E+00
  0.00000000E+00  0.00000000E+00  0.00000000E+00
  0.00000000E+00  0.00000000E+00  0.00000000E+00
