Primitive Cell                          
   1.00000000000000     
     8.8505859719486963   -0.0044387354628037    0.0247416611863047
    -0.0537685394835896    7.9949024426283062    0.0069630579570797
    -1.3069648312564246   -0.0328776217269285    7.9063333414429504
   Nb   Si   O    Li
     6     4    26     6
Selective dynamics
Direct
  0.3659816896748538  0.9554793274589812  0.3918610470382262   T   T   T
  0.3538474846670283  0.4496723118327282  0.3923367651508300   T   T   T
  0.9951266055044954  0.0025046407582110  0.5972800572381303   T   T   T
  0.9901415059922911  0.4971435100187662  0.6104204040720447   T   T   T
  0.6251609196028127  0.4994457695280303  0.8099842233027417   T   T   T
  0.6289685718281746  0.0004151990693586  0.8152928182075456   T   T   T
  0.7127801317184606  0.9161395745093301  0.2393335307215310   T   T   T
  0.7095834056695978  0.5307306143083750  0.2413841678198381   T   T   T
  0.2861529875497553  0.0256083141370311  0.9674941219951805   T   T   T
  0.2818300894339671  0.4209794524946133  0.9708066359777447   T   T   T
  0.3333410838083992  0.2239927976766865  0.0026335601101266   T   T   T
  0.7673144101975069  0.9583924071549461  0.0586436296185440   T   T   T
  0.7594649168826422  0.4832842767409247  0.0588692549059502   T   T   T
  0.2683738964321876  0.9334328434416221  0.1477257513761643   T   T   T
  0.2655213894088746  0.5101952801397189  0.1530614040027700   T   T   T
  0.6411615950957881  0.7233709227529772  0.2252062625616489   T   T   T
  0.5715349891876329  0.0359255547760853  0.2736318011310814   T   T   T
  0.5707129378034068  0.4088238777845277  0.2791156517934184   T   T   T
  0.3269019709386427  0.2228301378546149  0.3662095939715968   T   T   T
  0.8571425053941866  0.5186440217856259  0.3929051746660903   T   T   T
  0.8590852186401392  0.9326907539634561  0.3923191736919804   T   T   T
  0.3960898421600163  0.7267815068027090  0.4190704385219775   T   T   T
  0.1942098267865191  0.9504532663137013  0.5120202302053372   T   T   T
  0.1929466184252107  0.4989726168381097  0.5166193670867827   T   T   T
  0.9935831729977167  0.2265505903876530  0.5587791606963322   T   T   T
  0.5201038053864977  0.0270936871019600  0.5880182530139990   T   T   T
  0.5168797520173172  0.4282581236624807  0.5935236076322497   T   T   T
  0.0200722821590986  0.7225771696974661  0.6555451609637046   T   T   T
  0.8272252822465589  0.9993228468893420  0.7379066952240549   T   T   T
  0.8237020921880429  0.4474743532653207  0.7393051626083746   T   T   T
  0.6352777191649466  0.7262735401130058  0.7904837676227956   T   T   T
  0.1231411263634286  0.0087775916638648  0.8441622277330154   T   T   T
  0.1180005769510188  0.4323159696636054  0.8494563622737772   T   T   T
  0.6134381889980887  0.2224640439602652  0.8766767965084057   T   T   T
  0.4280773634141894  0.9269604297782124  0.9031617620446966   T   T   T
  0.4225942963901161  0.5238710035555840  0.9073152305567049   T   T   T
  0.4247509588166665  0.7241887252704302  0.0723817713417461   T   T   T
  0.5546842210101488  0.2272729357759502  0.1113652548365778   T   T   T
  0.6037884349436595  0.2231668540151333  0.4593895832781740   T   T   T
  0.2493469136438833  0.7265714822636440  0.6195020485686555   T   T   T
  0.9528803087899789  0.9456091271798286  0.9607389787243434   T   T   T
  0.9421859014010536  0.4300766213901355  0.9689573590181269   T   T   T
 
  0.00000000E+00  0.00000000E+00  0.00000000E+00
  0.00000000E+00  0.00000000E+00  0.00000000E+00
  0.00000000E+00  0.00000000E+00  0.00000000E+00
  0.00000000E+00  0.00000000E+00  0.00000000E+00
  0.00000000E+00  0.00000000E+00  0.00000000E+00
  0.00000000E+00  0.00000000E+00  0.00000000E+00
  0.00000000E+00  0.00000000E+00  0.00000000E+00
  0.00000000E+00  0.00000000E+00  0.00000000E+00
  0.00000000E+00  0.00000000E+00  0.00000000E+00
  0.00000000E+00  0.00000000E+00  0.00000000E+00
  0.00000000E+00  0.00000000E+00  0.00000000E+00
  0.00000000E+00  0.00000000E+00  0.00000000E+00
  0.00000000E+00  0.00000000E+00  0.00000000E+00
  0.00000000E+00  0.00000000E+00  0.00000000E+00
  0.00000000E+00  0.00000000E+00  0.00000000E+00
  0.00000000E+00  0.00000000E+00  0.00000000E+00
  0.00000000E+00  0.00000000E+00  0.00000000E+00
  0.00000000E+00  0.00000000E+00  0.00000000E+00
  0.00000000E+00  0.00000000E+00  0.00000000E+00
  0.00000000E+00  0.00000000E+00  0.00000000E+00
  0.00000000E+00  0.00000000E+00  0.00000000E+00
  0.00000000E+00  0.00000000E+00  0.00000000E+00
  0.00000000E+00  0.00000000E+00  0.00000000E+00
  0.00000000E+00  0.00000000E+00  0.00000000E+00
  0.00000000E+00  0.00000000E+00  0.00000000E+00
  0.00000000E+00  0.00000000E+00  0.00000000E+00
  0.00000000E+00  0.00000000E+00  0.00000000E+00
  0.00000000E+00  0.00000000E+00  0.00000000E+00
  0.00000000E+00  0.00000000E+00  0.00000000E+00
  0.00000000E+00  0.00000000E+00  0.00000000E+00
  0.00000000E+00  0.00000000E+00  0.00000000E+00
  0.00000000E+00  0.00000000E+00  0.00000000E+00
  0.00000000E+00  0.00000000E+00  0.00000000E+00
  0.00000000E+00  0.00000000E+00  0.00000000E+00
  0.00000000E+00  0.00000000E+00  0.00000000E+00
  0.00000000E+00  0.00000000E+00  0.00000000E+00
  0.00000000E+00  0.00000000E+00  0.00000000E+00
  0.00000000E+00  0.00000000E+00  0.00000000E+00
  0.00000000E+00  0.00000000E+00  0.00000000E+00
  0.00000000E+00  0.00000000E+00  0.00000000E+00
  0.00000000E+00  0.00000000E+00  0.00000000E+00
  0.00000000E+00  0.00000000E+00  0.00000000E+00
