Primitive Cell                          
   1.00000000000000     
     7.6825804070002848    0.0009731835436893   -0.0505387991994306
     0.0866394588200420    7.7926640733720136    0.0307218007077731
    -3.4068882661540218    3.6672213875427468   11.2029831907334074
   Nb   Si   O    Li
     8     4    32     8
Selective dynamics
Direct
  0.4542107275857674  0.9917645545074976  0.0034989197026434   T   T   T
  0.5255826617705281  0.4793764762699695  0.0167718910487622   T   T   T
  0.9808384493920030  0.0194935378849621  0.0309913638415722   T   T   T
  0.0443068620049090  0.5159407058714010  0.0423559031952720   T   T   T
  0.0112484877429324  0.9638390680177977  0.5093956979913301   T   T   T
  0.5192327294582384  0.0448932469060708  0.5103836793364849   T   T   T
  0.5037252745134140  0.5278467366647845  0.5476449064932964   T   T   T
  0.9945003685510372  0.4445032219074676  0.5470080251731133   T   T   T
  0.3856901285411709  0.8687576345093646  0.2724479911933102   T   T   T
  0.8862284170847516  0.3577630808521803  0.2784903719262601   T   T   T
  0.6290113788389462  0.1330282272687384  0.7740645554650385   T   T   T
  0.1338397070027710  0.6263235283318664  0.7775179172927054   T   T   T
  0.4916288182781017  0.2297092795371043  0.0563567565783458   T   T   T
  0.9741261513992399  0.7259626726918214  0.0702994177164058   T   T   T
  0.2929456217852930  0.5119865018420029  0.0801897760174768   T   T   T
  0.7780699387045047  0.0009547831430936  0.0871406682996820   T   T   T
  0.5190527648951360  0.8713631145009160  0.1900000663592465   T   T   T
  0.1700667108882072  0.9433365402074330  0.1980466845428452   T   T   T
  0.6829568044815062  0.4633347074763137  0.1941882552015031   T   T   T
  0.0303885374592170  0.3532635066170542  0.2027832823117777   T   T   T
  0.8663754573946889  0.1449889302622296  0.3428102541161664   T   T   T
  0.4495999185528703  0.0131029035206822  0.3456087851556902   T   T   T
  0.3904409530520141  0.6624985030589059  0.3601797760807131   T   T   T
  0.9625111643858446  0.4761871211332505  0.3678051695069939   T   T   T
  0.5153650471400653  0.2906121158331842  0.4599651054663880   T   T   T
  0.0134348245510623  0.7613852680536297  0.4635510240138103   T   T   T
  0.2330916655675566  0.0486545512962451  0.4794235172823491   T   T   T
  0.7397816442690583  0.5293074587582893  0.5012705486160911   T   T   T
  0.7669460948515479  0.9610804818186551  0.5399901971574366   T   T   T
  0.2656706822832433  0.4650523166309952  0.5461154992527781   T   T   T
  0.5002118895436141  0.7321465136333245  0.5923533169297031   T   T   T
  0.0037478836362155  0.1979582088595890  0.5986902308458255   T   T   T
  0.5449486505741206  0.0161292860154845  0.6843789075834934   T   T   T
  0.1330398564051976  0.8351389719006619  0.6914202399183722   T   T   T
  0.0557118749640253  0.4892737255948134  0.7021260916672318   T   T   T
  0.6411025631986789  0.3483553086318238  0.7072345156156317   T   T   T
  0.3519806059770616  0.5692786842631250  0.8509630960032126   T   T   T
  0.8386481489930304  0.0483498013205903  0.8560384269966548   T   T   T
  0.4906009120782713  0.1294652742114550  0.8536813378707677   T   T   T
  0.0028484405220723  0.6222201376716967  0.8623498515112331   T   T   T
  0.2034265013923502  0.9857804229777898  0.9576764897371106   T   T   T
  0.7341656544080379  0.4882242616197914  0.9695421858546922   T   T   T
  0.0135625473635059  0.2649613291279280  0.9993672944518792   T   T   T
  0.5321728691939782  0.7645003149165319  0.0001034982464745   T   T   T
  0.7596196746715691  0.7284905704574740  0.1330349005067646   T   T   T
  0.6850345544070890  0.0659735541532029  0.2161968512860710   T   T   T
  0.1856132013350447  0.1282658036049327  0.2935055445413184   T   T   T
  0.5663077664725549  0.4942942624867754  0.3275981387102576   T   T   T
  0.1361889551529885  0.6554580772980785  0.3652221758773919   T   T   T
  0.4251411825357110  0.7902876139856190  0.7263151569930102   T   T   T
  0.0321041383003973  0.0170556264951855  0.7707683253392617   T   T   T
  0.8191295168078838  0.4356997073032218  0.8349218625920756   T   T   T
 
  0.00000000E+00  0.00000000E+00  0.00000000E+00
  0.00000000E+00  0.00000000E+00  0.00000000E+00
  0.00000000E+00  0.00000000E+00  0.00000000E+00
  0.00000000E+00  0.00000000E+00  0.00000000E+00
  0.00000000E+00  0.00000000E+00  0.00000000E+00
  0.00000000E+00  0.00000000E+00  0.00000000E+00
  0.00000000E+00  0.00000000E+00  0.00000000E+00
  0.00000000E+00  0.00000000E+00  0.00000000E+00
  0.00000000E+00  0.00000000E+00  0.00000000E+00
  0.00000000E+00  0.00000000E+00  0.00000000E+00
  0.00000000E+00  0.00000000E+00  0.00000000E+00
  0.00000000E+00  0.00000000E+00  0.00000000E+00
  0.00000000E+00  0.00000000E+00  0.00000000E+00
  0.00000000E+00  0.00000000E+00  0.00000000E+00
  0.00000000E+00  0.00000000E+00  0.00000000E+00
  0.00000000E+00  0.00000000E+00  0.00000000E+00
  0.00000000E+00  0.00000000E+00  0.00000000E+00
  0.00000000E+00  0.00000000E+00  0.00000000E+00
  0.00000000E+00  0.00000000E+00  0.00000000E+00
  0.00000000E+00  0.00000000E+00  0.00000000E+00
  0.00000000E+00  0.00000000E+00  0.00000000E+00
  0.00000000E+00  0.00000000E+00  0.00000000E+00
  0.00000000E+00  0.00000000E+00  0.00000000E+00
  0.00000000E+00  0.00000000E+00  0.00000000E+00
  0.00000000E+00  0.00000000E+00  0.00000000E+00
  0.00000000E+00  0.00000000E+00  0.00000000E+00
  0.00000000E+00  0.00000000E+00  0.00000000E+00
  0.00000000E+00  0.00000000E+00  0.00000000E+00
  0.00000000E+00  0.00000000E+00  0.00000000E+00
  0.00000000E+00  0.00000000E+00  0.00000000E+00
  0.00000000E+00  0.00000000E+00  0.00000000E+00
  0.00000000E+00  0.00000000E+00  0.00000000E+00
  0.00000000E+00  0.00000000E+00  0.00000000E+00
  0.00000000E+00  0.00000000E+00  0.00000000E+00
  0.00000000E+00  0.00000000E+00  0.00000000E+00
  0.00000000E+00  0.00000000E+00  0.00000000E+00
  0.00000000E+00  0.00000000E+00  0.00000000E+00
  0.00000000E+00  0.00000000E+00  0.00000000E+00
  0.00000000E+00  0.00000000E+00  0.00000000E+00
  0.00000000E+00  0.00000000E+00  0.00000000E+00
  0.00000000E+00  0.00000000E+00  0.00000000E+00
  0.00000000E+00  0.00000000E+00  0.00000000E+00
  0.00000000E+00  0.00000000E+00  0.00000000E+00
  0.00000000E+00  0.00000000E+00  0.00000000E+00
  0.00000000E+00  0.00000000E+00  0.00000000E+00
  0.00000000E+00  0.00000000E+00  0.00000000E+00
  0.00000000E+00  0.00000000E+00  0.00000000E+00
  0.00000000E+00  0.00000000E+00  0.00000000E+00
  0.00000000E+00  0.00000000E+00  0.00000000E+00
  0.00000000E+00  0.00000000E+00  0.00000000E+00
  0.00000000E+00  0.00000000E+00  0.00000000E+00
  0.00000000E+00  0.00000000E+00  0.00000000E+00
