Primitive Cell                          
   1.00000000000000     
    14.7697073299828787   -0.0094468675204393    0.0111058454786222
    -0.0891855152783947    8.3843558120528545   -0.0003614732678976
    -0.0065126750144278    0.0004381355823379    8.4485372271140537
   Nb   P    O    Li
    12     8    52     4
Selective dynamics
Direct
  0.8382790127963702  0.2947729888671660  0.0053691029374505   T   T   T
  0.3392697957371951  0.7923045736452892  0.0143297207489965   T   T   T
  0.4547319949313504  0.1892630070133592  0.1040979005944820   T   T   T
  0.9538945379927455  0.6867387082825971  0.1112623203537737   T   T   T
  0.3214011319866330  0.2793785513151192  0.4759763944696545   T   T   T
  0.8203562632323482  0.7754096287741845  0.4820154369997880   T   T   T
  0.5584750339849194  0.2965540848756589  0.5050974660446101   T   T   T
  0.0573630452800842  0.7988646030404567  0.5144452624689535   T   T   T
  0.9418962803555502  0.4015641814680748  0.6041964067492103   T   T   T
  0.4429539106853113  0.9049110192414886  0.6111570198657432   T   T   T
  0.0754593210069956  0.3121794263807516  0.9763273891708977   T   T   T
  0.5764530352371793  0.8154439706028711  0.9821061123435584   T   T   T
  0.0996483270278574  0.1889606497050238  0.3795734558391928   T   T   T
  0.5979056248980825  0.6917245109828372  0.3777474714244562   T   T   T
  0.7778690562435102  0.1782045331033615  0.3967887160966015   T   T   T
  0.2763349386272722  0.6827044670976434  0.4052793686125113   T   T   T
  0.2973087513087904  0.4021990993237523  0.8793561630037061   T   T   T
  0.7990230887596681  0.8997430427418465  0.8775285037334584   T   T   T
  0.6188247570315255  0.4126088383430684  0.8970456395189714   T   T   T
  0.1202960186579247  0.9087385381877979  0.9053567482186722   T   T   T
  0.5366768031404945  0.3543992303349910  0.9941499540794183   T   T   T
  0.5350861343564119  0.0289730068819267  0.0268990330572265   T   T   T
  0.0355931881966001  0.5218985732009429  0.0360575446768721   T   T   T
  0.0422342573706871  0.8485361054380149  0.0113620232095926   T   T   T
  0.9619023849420216  0.2230669294704697  0.0395069974869813   T   T   T
  0.4648664875541613  0.7299493411790081  0.0542811297528800   T   T   T
  0.8666947382699703  0.4908682833692453  0.0993885418409945   T   T   T
  0.3634192645754837  0.9998411339337139  0.0988192002300963   T   T   T
  0.1251006062535609  0.2268325764309012  0.2080014345298480   T   T   T
  0.6264216442701169  0.7637495542860364  0.2171080156690692   T   T   T
  0.7946046288133672  0.1927784850030889  0.2148924542298687   T   T   T
  0.2982472365496207  0.7112666422160174  0.2279176863222077   T   T   T
  0.3464780372707637  0.2613196743017951  0.2592576991345439   T   T   T
  0.8458732393869610  0.7691414237801837  0.2639882149971413   T   T   T
  0.5200187005799677  0.2099257544760320  0.2942797840697651   T   T   T
  0.0160788759303898  0.7108117455502736  0.3030282660497292   T   T   T
  0.5652634617918579  0.5189064161123227  0.3736759183905036   T   T   T
  0.0626747751612982  0.0196103495295930  0.4017593269205548   T   T   T
  0.0313716721519981  0.3153111770212575  0.4388367486655085   T   T   T
  0.2579484249725752  0.5044833524604044  0.4328109269355238   T   T   T
  0.7608445971066047  0.9985984870418534  0.4258043585180147   T   T   T
  0.5255686123659515  0.8044070117600270  0.4477705880681100   T   T   T
  0.1883747184681255  0.7719430832198526  0.4481968879529248   T   T   T
  0.6922785640071112  0.2700712744613796  0.4433200832840569   T   T   T
  0.1861005508956879  0.2087345329060852  0.4832686511107340   T   T   T
  0.6845571374321722  0.6963061551207375  0.4843413867008266   T   T   T
  0.8600421078237943  0.2367327685500982  0.4937283860573274   T   T   T
  0.8616355075838555  0.5620251241376266  0.5267403519663887   T   T   T
  0.3613104294796301  0.0695788532433781  0.5352992827123586   T   T   T
  0.3546686953385532  0.7429239514317629  0.5105769968664902   T   T   T
  0.4348906126991068  0.3685060950269232  0.5392511715366837   T   T   T
  0.9318698836773436  0.8614322590422958  0.5540245955035417   T   T   T
  0.5300336978487294  0.1004643041810667  0.5996563357495504   T   T   T
  0.0331141080805466  0.5913815237059552  0.5989768205951336   T   T   T
  0.2717549321814730  0.3648061168852195  0.7077789930135836   T   T   T
  0.7706195153824851  0.8273892646780112  0.7169600538579104   T   T   T
  0.6020162453324716  0.3980605060176288  0.7152041816758441   T   T   T
  0.0979726562552727  0.8799249830507989  0.7282590524821089   T   T   T
  0.0502556207857978  0.3300698192265799  0.7596750513505626   T   T   T
  0.5509171922542819  0.8219580877932842  0.7640864984294211   T   T   T
  0.8766883162668009  0.3812013356764368  0.7941763406583462   T   T   T
  0.3805968409649978  0.8804908368051443  0.8028147598810378   T   T   T
  0.8315696297709465  0.0725426655146109  0.8732969553506678   T   T   T
  0.3342806510862601  0.5715272949471597  0.9020076498787830   T   T   T
  0.3655365420657404  0.2755027225275128  0.9381778621883470   T   T   T
  0.1388139479568480  0.0868671294303240  0.9329789463729767   T   T   T
  0.6357884917596621  0.5923007087770600  0.9259990853664775   T   T   T
  0.8714451245131869  0.7873535252348418  0.9477462985745646   T   T   T
  0.2082703246361248  0.8191620734769103  0.9476531600974525   T   T   T
  0.7044343589735362  0.3208226512593200  0.9436294841615123   T   T   T
  0.2108727294334969  0.3824087538663647  0.9831527098028943   T   T   T
  0.7122757230217047  0.8947840333980110  0.9838478409093909   T   T   T
  0.2468464805913655  0.1722328674282565  0.1064306032428561   T   T   T
  0.7380413281877054  0.9068258254675712  0.2053250253224874   T   T   T
  0.1498311353091353  0.4187613200071922  0.6064327903028257   T   T   T
  0.6588800077538437  0.6841611724121037  0.7057141997399086   T   T   T
 
  0.00000000E+00  0.00000000E+00  0.00000000E+00
  0.00000000E+00  0.00000000E+00  0.00000000E+00
  0.00000000E+00  0.00000000E+00  0.00000000E+00
  0.00000000E+00  0.00000000E+00  0.00000000E+00
  0.00000000E+00  0.00000000E+00  0.00000000E+00
  0.00000000E+00  0.00000000E+00  0.00000000E+00
  0.00000000E+00  0.00000000E+00  0.00000000E+00
  0.00000000E+00  0.00000000E+00  0.00000000E+00
  0.00000000E+00  0.00000000E+00  0.00000000E+00
  0.00000000E+00  0.00000000E+00  0.00000000E+00
  0.00000000E+00  0.00000000E+00  0.00000000E+00
  0.00000000E+00  0.00000000E+00  0.00000000E+00
  0.00000000E+00  0.00000000E+00  0.00000000E+00
  0.00000000E+00  0.00000000E+00  0.00000000E+00
  0.00000000E+00  0.00000000E+00  0.00000000E+00
  0.00000000E+00  0.00000000E+00  0.00000000E+00
  0.00000000E+00  0.00000000E+00  0.00000000E+00
  0.00000000E+00  0.00000000E+00  0.00000000E+00
  0.00000000E+00  0.00000000E+00  0.00000000E+00
  0.00000000E+00  0.00000000E+00  0.00000000E+00
  0.00000000E+00  0.00000000E+00  0.00000000E+00
  0.00000000E+00  0.00000000E+00  0.00000000E+00
  0.00000000E+00  0.00000000E+00  0.00000000E+00
  0.00000000E+00  0.00000000E+00  0.00000000E+00
  0.00000000E+00  0.00000000E+00  0.00000000E+00
  0.00000000E+00  0.00000000E+00  0.00000000E+00
  0.00000000E+00  0.00000000E+00  0.00000000E+00
  0.00000000E+00  0.00000000E+00  0.00000000E+00
  0.00000000E+00  0.00000000E+00  0.00000000E+00
  0.00000000E+00  0.00000000E+00  0.00000000E+00
  0.00000000E+00  0.00000000E+00  0.00000000E+00
  0.00000000E+00  0.00000000E+00  0.00000000E+00
  0.00000000E+00  0.00000000E+00  0.00000000E+00
  0.00000000E+00  0.00000000E+00  0.00000000E+00
  0.00000000E+00  0.00000000E+00  0.00000000E+00
  0.00000000E+00  0.00000000E+00  0.00000000E+00
  0.00000000E+00  0.00000000E+00  0.00000000E+00
  0.00000000E+00  0.00000000E+00  0.00000000E+00
  0.00000000E+00  0.00000000E+00  0.00000000E+00
  0.00000000E+00  0.00000000E+00  0.00000000E+00
  0.00000000E+00  0.00000000E+00  0.00000000E+00
  0.00000000E+00  0.00000000E+00  0.00000000E+00
  0.00000000E+00  0.00000000E+00  0.00000000E+00
  0.00000000E+00  0.00000000E+00  0.00000000E+00
  0.00000000E+00  0.00000000E+00  0.00000000E+00
  0.00000000E+00  0.00000000E+00  0.00000000E+00
  0.00000000E+00  0.00000000E+00  0.00000000E+00
  0.00000000E+00  0.00000000E+00  0.00000000E+00
  0.00000000E+00  0.00000000E+00  0.00000000E+00
  0.00000000E+00  0.00000000E+00  0.00000000E+00
  0.00000000E+00  0.00000000E+00  0.00000000E+00
  0.00000000E+00  0.00000000E+00  0.00000000E+00
  0.00000000E+00  0.00000000E+00  0.00000000E+00
  0.00000000E+00  0.00000000E+00  0.00000000E+00
  0.00000000E+00  0.00000000E+00  0.00000000E+00
  0.00000000E+00  0.00000000E+00  0.00000000E+00
  0.00000000E+00  0.00000000E+00  0.00000000E+00
  0.00000000E+00  0.00000000E+00  0.00000000E+00
  0.00000000E+00  0.00000000E+00  0.00000000E+00
  0.00000000E+00  0.00000000E+00  0.00000000E+00
  0.00000000E+00  0.00000000E+00  0.00000000E+00
  0.00000000E+00  0.00000000E+00  0.00000000E+00
  0.00000000E+00  0.00000000E+00  0.00000000E+00
  0.00000000E+00  0.00000000E+00  0.00000000E+00
  0.00000000E+00  0.00000000E+00  0.00000000E+00
  0.00000000E+00  0.00000000E+00  0.00000000E+00
  0.00000000E+00  0.00000000E+00  0.00000000E+00
  0.00000000E+00  0.00000000E+00  0.00000000E+00
  0.00000000E+00  0.00000000E+00  0.00000000E+00
  0.00000000E+00  0.00000000E+00  0.00000000E+00
  0.00000000E+00  0.00000000E+00  0.00000000E+00
  0.00000000E+00  0.00000000E+00  0.00000000E+00
  0.00000000E+00  0.00000000E+00  0.00000000E+00
  0.00000000E+00  0.00000000E+00  0.00000000E+00
  0.00000000E+00  0.00000000E+00  0.00000000E+00
  0.00000000E+00  0.00000000E+00  0.00000000E+00
