Primitive Cell                          
   1.00000000000000     
     7.8101463156285611   -0.0003091122726128   -0.0077706058094407
    -0.0013674916812570    8.0575841718830628   -0.0002132597916037
    -0.0083922706964837   -0.0012117640241082    6.9699154299632342
   Si   Zr   O    Li
     4     4    20     8
Selective dynamics
Direct
  0.4105703594667531  0.4314698246203434  0.3919160956535563   T   T   T
  0.9106333354100542  0.1668830697951122  0.3918893728579675   T   T   T
  0.1615971830604579  0.9342424983817779  0.9068436734471206   T   T   T
  0.6616301553451791  0.6641724450266437  0.9073705347638636   T   T   T
  0.1737824673958386  0.8165129132519624  0.3921340570203924   T   T   T
  0.6738547841763278  0.7819101837054134  0.3926651143835329   T   T   T
  0.4258593290103931  0.2916249290067370  0.8770551437433269   T   T   T
  0.9258973140074858  0.3066937991478795  0.8768803397566458   T   T   T
  0.1764356735382151  0.8081987161262205  0.0921282971639954   T   T   T
  0.6766797248213052  0.7903826520129726  0.0925332719307832   T   T   T
  0.9186175981786846  0.3064275655633608  0.2167888390317785   T   T   T
  0.4189229694627841  0.2917257738615149  0.2168974363336318   T   T   T
  0.0887850047810375  0.0596437075787932  0.3724284547659238   T   T   T
  0.5886773704963773  0.5387442044154014  0.3726095970309871   T   T   T
  0.2397780141499837  0.5485422243576110  0.3704177436503358   T   T   T
  0.7398322716865451  0.0497985446261495  0.3713114240800479   T   T   T
  0.4267105852640753  0.8823758349394097  0.4331214442299540   T   T   T
  0.9267770095128398  0.7160238820170903  0.4331215996333526   T   T   T
  0.9200558834929993  0.2857368744621596  0.5841264451877493   T   T   T
  0.4194999681257841  0.3132342755786581  0.5844598590612335   T   T   T
  0.1615524903221299  0.8179938436859402  0.7117768983160673   T   T   T
  0.6615570075725827  0.7803477352792427  0.7122151031178063   T   T   T
  0.3384652287288432  0.0459145704106732  0.8901754398031798   T   T   T
  0.8384458604963356  0.5524086084500865  0.8906163026579890   T   T   T
  0.9902805396976575  0.0500687950184542  0.9253958582472350   T   T   T
  0.4903999373650265  0.5481929212173213  0.9260143428297667   T   T   T
  0.6757129926557042  0.2289034057667223  0.9360295443991973   T   T   T
  0.1756595111172601  0.3694253889703063  0.9366123228201104   T   T   T
  0.7542158697014827  0.0109172647660145  0.0308218022341507   T   T   T
  0.2544222772157667  0.5873711706274634  0.0319404628328286   T   T   T
  0.6742293013518648  0.3660581291555829  0.1807699366815783   T   T   T
  0.1742492746422357  0.2324195889429603  0.1808222169792941   T   T   T
  0.9905373023077360  0.4845130864737754  0.3994867177566377   T   T   T
  0.4905910842586465  0.1139853803654560  0.3997399974694957   T   T   T
  0.4320209507041142  0.8770490848202357  0.7090916980781543   T   T   T
  0.9322574448435077  0.7207696026385335  0.7092253900783234   T   T   T
 
  0.00000000E+00  0.00000000E+00  0.00000000E+00
  0.00000000E+00  0.00000000E+00  0.00000000E+00
  0.00000000E+00  0.00000000E+00  0.00000000E+00
  0.00000000E+00  0.00000000E+00  0.00000000E+00
  0.00000000E+00  0.00000000E+00  0.00000000E+00
  0.00000000E+00  0.00000000E+00  0.00000000E+00
  0.00000000E+00  0.00000000E+00  0.00000000E+00
  0.00000000E+00  0.00000000E+00  0.00000000E+00
  0.00000000E+00  0.00000000E+00  0.00000000E+00
  0.00000000E+00  0.00000000E+00  0.00000000E+00
  0.00000000E+00  0.00000000E+00  0.00000000E+00
  0.00000000E+00  0.00000000E+00  0.00000000E+00
  0.00000000E+00  0.00000000E+00  0.00000000E+00
  0.00000000E+00  0.00000000E+00  0.00000000E+00
  0.00000000E+00  0.00000000E+00  0.00000000E+00
  0.00000000E+00  0.00000000E+00  0.00000000E+00
  0.00000000E+00  0.00000000E+00  0.00000000E+00
  0.00000000E+00  0.00000000E+00  0.00000000E+00
  0.00000000E+00  0.00000000E+00  0.00000000E+00
  0.00000000E+00  0.00000000E+00  0.00000000E+00
  0.00000000E+00  0.00000000E+00  0.00000000E+00
  0.00000000E+00  0.00000000E+00  0.00000000E+00
  0.00000000E+00  0.00000000E+00  0.00000000E+00
  0.00000000E+00  0.00000000E+00  0.00000000E+00
  0.00000000E+00  0.00000000E+00  0.00000000E+00
  0.00000000E+00  0.00000000E+00  0.00000000E+00
  0.00000000E+00  0.00000000E+00  0.00000000E+00
  0.00000000E+00  0.00000000E+00  0.00000000E+00
  0.00000000E+00  0.00000000E+00  0.00000000E+00
  0.00000000E+00  0.00000000E+00  0.00000000E+00
  0.00000000E+00  0.00000000E+00  0.00000000E+00
  0.00000000E+00  0.00000000E+00  0.00000000E+00
  0.00000000E+00  0.00000000E+00  0.00000000E+00
  0.00000000E+00  0.00000000E+00  0.00000000E+00
  0.00000000E+00  0.00000000E+00  0.00000000E+00
  0.00000000E+00  0.00000000E+00  0.00000000E+00
