Primitive Cell                          
   1.00000000000000     
     5.4306679116222121   -0.0140450924645153    0.0028010946608797
     0.0401712918247044   10.4801822075377462   -0.0125275583906214
    -0.0190200020041976   -0.1191172995352772   19.8793824324884234
   Si   Ta   O    Li
    16     8    56     8
Selective dynamics
Direct
  0.1395618789153303  0.4219507843582875  0.0679724953646783   T   T   T
  0.6670572542590421  0.0138894044176183  0.0740374587613459   T   T   T
  0.1149672483613244  0.3806809489221408  0.2126464464653921   T   T   T
  0.6731265077748745  0.0454782428189660  0.2193176580914482   T   T   T
  0.6163092525719733  0.5440047546552833  0.2256649025507969   T   T   T
  0.1759213616522288  0.8839124750054381  0.2296287235232128   T   T   T
  0.6639203768462139  0.5194557865898659  0.3710735514499888   T   T   T
  0.1490418797718007  0.9185804462272316  0.3730939093910948   T   T   T
  0.6693627977351468  0.4220921579502104  0.5678600403547804   T   T   T
  0.1380203098479242  0.0141688037013452  0.5736980289950253   T   T   T
  0.6920809323013160  0.3813212629948453  0.7124525695977084   T   T   T
  0.1336293710940595  0.0453863464607451  0.7190161136157798   T   T   T
  0.1900565490066057  0.5447612149951055  0.7255118044500222   T   T   T
  0.6316703241581152  0.8836812066883368  0.7295183402207854   T   T   T
  0.1421802417086226  0.5197811935671197  0.8708919554507020   T   T   T
  0.6569391539691267  0.9197144463359308  0.8729272577503195   T   T   T
  0.4013169978430469  0.7171105597998704  0.0883413453045208   T   T   T
  0.9036820894344046  0.2157507698522210  0.3515218048723128   T   T   T
  0.1717487674597038  0.4614657533659425  0.4678999810717031   T   T   T
  0.6445397645483126  0.9730034558551353  0.4713722143694454   T   T   T
  0.4051682547439057  0.7171042724500225  0.5883705169926543   T   T   T
  0.9034031799676043  0.2163162284666598  0.8514046224451661   T   T   T
  0.6358130225326519  0.4618137874276087  0.9678990333039792   T   T   T
  0.1608815491272395  0.9732749953550126  0.9714667225312539   T   T   T
  0.3705127312601775  0.3844209106485508  0.0197512292285040   T   T   T
  0.4329109775602475  0.0521942751811153  0.0256447641796598   T   T   T
  0.6126910926675038  0.6280910071530030  0.0261490002135787   T   T   T
  0.1855723793814121  0.8084706088514935  0.0268811428503355   T   T   T
  0.8791676713060639  0.3948312099065845  0.0319570164963423   T   T   T
  0.9411591914550854  0.0479816119170877  0.0466354970041607   T   T   T
  0.1617967256618371  0.5723180400559826  0.0912739895832928   T   T   T
  0.6428477239273036  0.8609548926838002  0.0909959161960643   T   T   T
  0.1610665471138262  0.3242984535162918  0.1346584389214911   T   T   T
  0.6075513640889838  0.1002403690342604  0.1430509702191642   T   T   T
  0.6108755347501713  0.6497023045261798  0.1666196144288818   T   T   T
  0.1816327271838816  0.7828073679393626  0.1677930758938189   T   T   T
  0.8455813127675640  0.4478657045237995  0.2079453134912654   T   T   T
  0.9507139269615550  0.9847114588954966  0.2120509360420328   T   T   T
  0.3475158894651500  0.4741081701563346  0.2285610978778010   T   T   T
  0.4503795923715046  0.9470455478482975  0.2355848639187457   T   T   T
  0.1146925845619080  0.2723684338658998  0.2702474199946963   T   T   T
  0.6705459276263568  0.1533314447627490  0.2779874163269795   T   T   T
  0.6732476145032038  0.6013987481691103  0.3008963515894649   T   T   T
  0.1182716616965465  0.8291476204512804  0.3053654164616475   T   T   T
  0.1284118672820185  0.0688707395203352  0.3511356333055957   T   T   T
  0.6785918205906896  0.3653713469970512  0.3518237387243133   T   T   T
  0.1285348056507090  0.3148718171425102  0.4072042864620684   T   T   T
  0.4158052416533806  0.8980738860106854  0.4086511976603049   T   T   T
  0.4028044953902139  0.5456663783144293  0.4079358038720358   T   T   T
  0.7070187777114114  0.1237437258861220  0.4174049411352456   T   T   T
  0.8908966957188795  0.5577977773005642  0.4214080537167675   T   T   T
  0.9348798585738720  0.8841782997889425  0.4287208213621625   T   T   T
  0.4395385674671459  0.3843961546265575  0.5191808917259664   T   T   T
  0.3716684388595226  0.0523415120133564  0.5251770172547836   T   T   T
  0.1945896911481526  0.6279186941037338  0.5260702192410704   T   T   T
  0.6212590377260412  0.8087238230448293  0.5271952156260795   T   T   T
  0.9308891547273248  0.3946569230609356  0.5325155596793536   T   T   T
  0.8636791620989683  0.0484065429550782  0.5463707519746137   T   T   T
  0.6455526634602577  0.5724693763360023  0.5909363220635200   T   T   T
  0.1630743712548366  0.8611866322038395  0.5906434677023498   T   T   T
  0.6458732110645897  0.3246825065394674  0.6345198111407910   T   T   T
  0.1979853460069094  0.1003994492127873  0.6427245227237037   T   T   T
  0.1949744634426764  0.6504938413969583  0.6664244666782153   T   T   T
  0.6250728410283486  0.7822381303390529  0.6678713144539472   T   T   T
  0.9607399575797331  0.4487889241411764  0.7078033994646518   T   T   T
  0.8570801898706719  0.9839214396784755  0.7117665423453872   T   T   T
  0.4589904528448514  0.4747566917044495  0.7282868778199827   T   T   T
  0.3576573458882351  0.9475061890751633  0.7351290767315319   T   T   T
  0.6922459085352983  0.2729452806555344  0.7700030247940362   T   T   T
  0.1357623985773628  0.1530011487322156  0.7778344945380695   T   T   T
  0.1338181181181852  0.6020512375959512  0.8007755735955158   T   T   T
  0.6888097884633169  0.8297211363704022  0.8054256608064492   T   T   T
  0.6778067476534133  0.0698665607035807  0.8509054429794176   T   T   T
  0.1283206720080656  0.3657237563641189  0.8514237788122898   T   T   T
  0.6786909067456364  0.3154974389481353  0.9070233355473860   T   T   T
  0.3899779891445121  0.8994650200147163  0.9083996173017681   T   T   T
  0.4023102329367489  0.5456986594158622  0.9083141383818187   T   T   T
  0.0984843036715404  0.1243305997466990  0.9176394305824545   T   T   T
  0.9143245302336567  0.5585014519735623  0.9209033342758062   T   T   T
  0.8705558898132324  0.8851219268349197  0.9287928315289449   T   T   T
  0.2249848973554975  0.1487622359424279  0.0976171636545828   T   T   T
  0.9007424545788396  0.7123041839252409  0.1256079920941104   T   T   T
  0.4017238309970423  0.2427473927317436  0.3272429931998246   T   T   T
  0.9090759329538400  0.7167461751026352  0.4744796477533271   T   T   T
  0.5775561905630227  0.1501517157344665  0.5969170698506900   T   T   T
  0.9060810163599839  0.7139253406354698  0.6247350734221868   T   T   T
  0.4049544450856928  0.2426450929737882  0.8263725984768797   T   T   T
  0.8970865654768048  0.7171985127253890  0.9743765867929639   T   T   T
 
  0.00000000E+00  0.00000000E+00  0.00000000E+00
  0.00000000E+00  0.00000000E+00  0.00000000E+00
  0.00000000E+00  0.00000000E+00  0.00000000E+00
  0.00000000E+00  0.00000000E+00  0.00000000E+00
  0.00000000E+00  0.00000000E+00  0.00000000E+00
  0.00000000E+00  0.00000000E+00  0.00000000E+00
  0.00000000E+00  0.00000000E+00  0.00000000E+00
  0.00000000E+00  0.00000000E+00  0.00000000E+00
  0.00000000E+00  0.00000000E+00  0.00000000E+00
  0.00000000E+00  0.00000000E+00  0.00000000E+00
  0.00000000E+00  0.00000000E+00  0.00000000E+00
  0.00000000E+00  0.00000000E+00  0.00000000E+00
  0.00000000E+00  0.00000000E+00  0.00000000E+00
  0.00000000E+00  0.00000000E+00  0.00000000E+00
  0.00000000E+00  0.00000000E+00  0.00000000E+00
  0.00000000E+00  0.00000000E+00  0.00000000E+00
  0.00000000E+00  0.00000000E+00  0.00000000E+00
  0.00000000E+00  0.00000000E+00  0.00000000E+00
  0.00000000E+00  0.00000000E+00  0.00000000E+00
  0.00000000E+00  0.00000000E+00  0.00000000E+00
  0.00000000E+00  0.00000000E+00  0.00000000E+00
  0.00000000E+00  0.00000000E+00  0.00000000E+00
  0.00000000E+00  0.00000000E+00  0.00000000E+00
  0.00000000E+00  0.00000000E+00  0.00000000E+00
  0.00000000E+00  0.00000000E+00  0.00000000E+00
  0.00000000E+00  0.00000000E+00  0.00000000E+00
  0.00000000E+00  0.00000000E+00  0.00000000E+00
  0.00000000E+00  0.00000000E+00  0.00000000E+00
  0.00000000E+00  0.00000000E+00  0.00000000E+00
  0.00000000E+00  0.00000000E+00  0.00000000E+00
  0.00000000E+00  0.00000000E+00  0.00000000E+00
  0.00000000E+00  0.00000000E+00  0.00000000E+00
  0.00000000E+00  0.00000000E+00  0.00000000E+00
  0.00000000E+00  0.00000000E+00  0.00000000E+00
  0.00000000E+00  0.00000000E+00  0.00000000E+00
  0.00000000E+00  0.00000000E+00  0.00000000E+00
  0.00000000E+00  0.00000000E+00  0.00000000E+00
  0.00000000E+00  0.00000000E+00  0.00000000E+00
  0.00000000E+00  0.00000000E+00  0.00000000E+00
  0.00000000E+00  0.00000000E+00  0.00000000E+00
  0.00000000E+00  0.00000000E+00  0.00000000E+00
  0.00000000E+00  0.00000000E+00  0.00000000E+00
  0.00000000E+00  0.00000000E+00  0.00000000E+00
  0.00000000E+00  0.00000000E+00  0.00000000E+00
  0.00000000E+00  0.00000000E+00  0.00000000E+00
  0.00000000E+00  0.00000000E+00  0.00000000E+00
  0.00000000E+00  0.00000000E+00  0.00000000E+00
  0.00000000E+00  0.00000000E+00  0.00000000E+00
  0.00000000E+00  0.00000000E+00  0.00000000E+00
  0.00000000E+00  0.00000000E+00  0.00000000E+00
  0.00000000E+00  0.00000000E+00  0.00000000E+00
  0.00000000E+00  0.00000000E+00  0.00000000E+00
  0.00000000E+00  0.00000000E+00  0.00000000E+00
  0.00000000E+00  0.00000000E+00  0.00000000E+00
  0.00000000E+00  0.00000000E+00  0.00000000E+00
  0.00000000E+00  0.00000000E+00  0.00000000E+00
  0.00000000E+00  0.00000000E+00  0.00000000E+00
  0.00000000E+00  0.00000000E+00  0.00000000E+00
  0.00000000E+00  0.00000000E+00  0.00000000E+00
  0.00000000E+00  0.00000000E+00  0.00000000E+00
  0.00000000E+00  0.00000000E+00  0.00000000E+00
  0.00000000E+00  0.00000000E+00  0.00000000E+00
  0.00000000E+00  0.00000000E+00  0.00000000E+00
  0.00000000E+00  0.00000000E+00  0.00000000E+00
  0.00000000E+00  0.00000000E+00  0.00000000E+00
  0.00000000E+00  0.00000000E+00  0.00000000E+00
  0.00000000E+00  0.00000000E+00  0.00000000E+00
  0.00000000E+00  0.00000000E+00  0.00000000E+00
  0.00000000E+00  0.00000000E+00  0.00000000E+00
  0.00000000E+00  0.00000000E+00  0.00000000E+00
  0.00000000E+00  0.00000000E+00  0.00000000E+00
  0.00000000E+00  0.00000000E+00  0.00000000E+00
  0.00000000E+00  0.00000000E+00  0.00000000E+00
  0.00000000E+00  0.00000000E+00  0.00000000E+00
  0.00000000E+00  0.00000000E+00  0.00000000E+00
  0.00000000E+00  0.00000000E+00  0.00000000E+00
  0.00000000E+00  0.00000000E+00  0.00000000E+00
  0.00000000E+00  0.00000000E+00  0.00000000E+00
  0.00000000E+00  0.00000000E+00  0.00000000E+00
  0.00000000E+00  0.00000000E+00  0.00000000E+00
  0.00000000E+00  0.00000000E+00  0.00000000E+00
  0.00000000E+00  0.00000000E+00  0.00000000E+00
  0.00000000E+00  0.00000000E+00  0.00000000E+00
  0.00000000E+00  0.00000000E+00  0.00000000E+00
  0.00000000E+00  0.00000000E+00  0.00000000E+00
  0.00000000E+00  0.00000000E+00  0.00000000E+00
  0.00000000E+00  0.00000000E+00  0.00000000E+00
  0.00000000E+00  0.00000000E+00  0.00000000E+00
