Primitive Cell                          
   1.00000000000000     
     6.6333566604819163    0.0172796231089775    0.0441424286963655
    -0.0302419242144435   15.8604325877129924   -0.0593139694479160
    -1.5029995141909991   -0.0065113443265640    6.2723679496535407
   Si   Ta   O    Li
     8     4    28     4
Selective dynamics
Direct
  0.1775029499484049  0.9456597690216384  0.1244719574909823   T   T   T
  0.6777674073493216  0.4457063429185339  0.1246972140496538   T   T   T
  0.7065147703323760  0.6428739944479815  0.1324232617250232   T   T   T
  0.2069989846094842  0.1428108066570815  0.1326162539081182   T   T   T
  0.8642888607632386  0.8814744453007179  0.7549277607423406   T   T   T
  0.3646022567861777  0.3814148376971502  0.7552467984541025   T   T   T
  0.3799271400832467  0.6980103414446077  0.7593104448876105   T   T   T
  0.8804140394198328  0.1980623404305462  0.7592566919704424   T   T   T
  0.3378101635415973  0.9188516418413073  0.6646519247264422   T   T   T
  0.8380949807530413  0.4189691810104250  0.6649391062693297   T   T   T
  0.8605896068334502  0.6571560298238666  0.6748571367637979   T   T   T
  0.3608606098020175  0.1570699889650413  0.6749410847612296   T   T   T
  0.9555034953443098  0.9012627696150304  0.0092513914240655   T   T   T
  0.4560017989530110  0.4011439276230604  0.0096381992893910   T   T   T
  0.4975782324756324  0.6954327664080040  0.0142663909448757   T   T   T
  0.9982348114408026  0.1954585730334912  0.0142760966117237   T   T   T
  0.6284611178296728  0.5457034007861523  0.1730378096667451   T   T   T
  0.1287189418779207  0.0456483239505800  0.1730541101653458   T   T   T
  0.2549584873860908  0.8964895790673850  0.3483182465033252   T   T   T
  0.7555671557466681  0.3965940018028178  0.3485493515977467   T   T   T
  0.8214696511801733  0.6862997953344347  0.3573980433232080   T   T   T
  0.3220989644507029  0.1861987557626890  0.3574627666822821   T   T   T
  0.3182438543882711  0.0384650931661312  0.6024560302259374   T   T   T
  0.8181345672642593  0.5385592220586872  0.6025225507549905   T   T   T
  0.0060759204656549  0.9257978502921560  0.6085764199022066   T   T   T
  0.5064028014996467  0.4257088284575445  0.6087597543286805   T   T   T
  0.5345272614956045  0.6549203108965997  0.6238490179578875   T   T   T
  0.0349906886776381  0.1549531249448250  0.6238257277017709   T   T   T
  0.3140642177113264  0.7944145112568179  0.6827464883441792   T   T   T
  0.8147354427577795  0.2944800957470477  0.6831091079047198   T   T   T
  0.6291863371666935  0.9175534684214384  0.6924427561516424   T   T   T
  0.1295890554900367  0.4177301049428337  0.6930199994210895   T   T   T
  0.8653061602491334  0.7808300015952412  0.7063807372525801   T   T   T
  0.3652957579107579  0.2808237144717864  0.7065592080164578   T   T   T
  0.1584445618548642  0.6472817440886303  0.7156840141457081   T   T   T
  0.6588027718573812  0.1473492940059131  0.7157854606193581   T   T   T
  0.3343279148532190  0.9369810439425379  0.9640669998923244   T   T   T
  0.8346641683699971  0.4371133065747017  0.9643782922514532   T   T   T
  0.8661327086919499  0.6404628677859279  0.9741525996614371   T   T   T
  0.3664348448719323  0.1403066818782790  0.9741347262641042   T   T   T
  0.0272301267823991  0.7989593208385486  0.4213699903085910   T   T   T
  0.5276068068609305  0.2990376608015737  0.4217354673841882   T   T   T
  0.0041863278571626  0.0427296842175835  0.4838442452663116   T   T   T
  0.5040752377331899  0.5426210985946724  0.4840702703196271   T   T   T
 
  0.00000000E+00  0.00000000E+00  0.00000000E+00
  0.00000000E+00  0.00000000E+00  0.00000000E+00
  0.00000000E+00  0.00000000E+00  0.00000000E+00
  0.00000000E+00  0.00000000E+00  0.00000000E+00
  0.00000000E+00  0.00000000E+00  0.00000000E+00
  0.00000000E+00  0.00000000E+00  0.00000000E+00
  0.00000000E+00  0.00000000E+00  0.00000000E+00
  0.00000000E+00  0.00000000E+00  0.00000000E+00
  0.00000000E+00  0.00000000E+00  0.00000000E+00
  0.00000000E+00  0.00000000E+00  0.00000000E+00
  0.00000000E+00  0.00000000E+00  0.00000000E+00
  0.00000000E+00  0.00000000E+00  0.00000000E+00
  0.00000000E+00  0.00000000E+00  0.00000000E+00
  0.00000000E+00  0.00000000E+00  0.00000000E+00
  0.00000000E+00  0.00000000E+00  0.00000000E+00
  0.00000000E+00  0.00000000E+00  0.00000000E+00
  0.00000000E+00  0.00000000E+00  0.00000000E+00
  0.00000000E+00  0.00000000E+00  0.00000000E+00
  0.00000000E+00  0.00000000E+00  0.00000000E+00
  0.00000000E+00  0.00000000E+00  0.00000000E+00
  0.00000000E+00  0.00000000E+00  0.00000000E+00
  0.00000000E+00  0.00000000E+00  0.00000000E+00
  0.00000000E+00  0.00000000E+00  0.00000000E+00
  0.00000000E+00  0.00000000E+00  0.00000000E+00
  0.00000000E+00  0.00000000E+00  0.00000000E+00
  0.00000000E+00  0.00000000E+00  0.00000000E+00
  0.00000000E+00  0.00000000E+00  0.00000000E+00
  0.00000000E+00  0.00000000E+00  0.00000000E+00
  0.00000000E+00  0.00000000E+00  0.00000000E+00
  0.00000000E+00  0.00000000E+00  0.00000000E+00
  0.00000000E+00  0.00000000E+00  0.00000000E+00
  0.00000000E+00  0.00000000E+00  0.00000000E+00
  0.00000000E+00  0.00000000E+00  0.00000000E+00
  0.00000000E+00  0.00000000E+00  0.00000000E+00
  0.00000000E+00  0.00000000E+00  0.00000000E+00
  0.00000000E+00  0.00000000E+00  0.00000000E+00
  0.00000000E+00  0.00000000E+00  0.00000000E+00
  0.00000000E+00  0.00000000E+00  0.00000000E+00
  0.00000000E+00  0.00000000E+00  0.00000000E+00
  0.00000000E+00  0.00000000E+00  0.00000000E+00
  0.00000000E+00  0.00000000E+00  0.00000000E+00
  0.00000000E+00  0.00000000E+00  0.00000000E+00
  0.00000000E+00  0.00000000E+00  0.00000000E+00
  0.00000000E+00  0.00000000E+00  0.00000000E+00
