Primitive Cell                          
   1.00000000000000     
     7.8358551823053686   -0.0144371983601717   -0.0444653322086236
    -0.0477605638021177   10.2834767222313559    0.0275234501811158
     2.1744981499917904   -0.5914557574853525    7.9031590715070239
   Si   Ta   O    Li
     8     4    28     4
Selective dynamics
Direct
  0.5567906683959265  0.4937631735773564  0.0533995859567824   T   T   T
  0.0775229566467104  0.0091371164452454  0.0587275458179377   T   T   T
  0.8616904012317761  0.4940037554220993  0.1981042344644024   T   T   T
  0.3807414802717730  0.9850182445753575  0.2033754926289930   T   T   T
  0.1110844324974352  0.7473417502338364  0.5260087208013218   T   T   T
  0.6303258022510150  0.2383970328487308  0.5314200327080769   T   T   T
  0.4145426892574449  0.7235578149495936  0.6706974369197098   T   T   T
  0.9352611749366559  0.2388151647828494  0.6762100530861659   T   T   T
  0.2007957150245545  0.7044282383692817  0.0899677064237139   T   T   T
  0.7154665289563198  0.2011134464675663  0.0957020994683404   T   T   T
  0.7764005237377702  0.5313169529066712  0.6337366137526388   T   T   T
  0.2913481506106876  0.0281537578303812  0.6394660309119757   T   T   T
  0.0783438394163340  0.8505721324268549  0.0307767800829737   T   T   T
  0.5400397860997828  0.3354237458942180  0.0455782203457744   T   T   T
  0.0145981928158321  0.5778632608163363  0.0723959086919379   T   T   T
  0.5190142275842291  0.0764797412524700  0.0781587509558861   T   T   T
  0.8756341020531195  0.3457249711088011  0.1134306540761898   T   T   T
  0.3934088892455563  0.8307318662673921  0.1328579247737309   T   T   T
  0.8782811471966028  0.0673515723010922  0.1272318003701258   T   T   T
  0.3673931261113452  0.5709380103142223  0.1258120417160669   T   T   T
  0.6631757379813124  0.5505908153258758  0.1966798310310764   T   T   T
  0.1757136684857130  0.0397438026290970  0.2157658206711730   T   T   T
  0.0900197811125594  0.7361020591770355  0.3333356511357479   T   T   T
  0.6120414892803936  0.2279084591650573  0.3402818254047801   T   T   T
  0.8800092976369882  0.5043645345187429  0.3892526902071580   T   T   T
  0.4020034047804018  0.9963449257596864  0.3961019471795169   T   T   T
  0.3162209861800918  0.6927014371670666  0.5137974391130982   T   T   T
  0.8287428847491398  0.1819396816200083  0.5330872481162601   T   T   T
  0.1246622956186911  0.1615590945961571  0.6038215271374909   T   T   T
  0.6138064944806345  0.6652655922272288  0.6022538663135322   T   T   T
  0.0987253769927889  0.9016435856498290  0.5966247996676941   T   T   T
  0.6162445696509664  0.3867198759980255  0.6160657772486076   T   T   T
  0.9728502713684648  0.6559627836866326  0.6513892434240987   T   T   T
  0.4775066335822515  0.1545440999089251  0.6572539448907548   T   T   T
  0.9520738207533341  0.3971247820692554  0.6839718236418690   T   T   T
  0.4137714454263772  0.8820491527199081  0.6988336710536132   T   T   T
  0.2958702763998602  0.6576224981891770  0.8376651505784238   T   T   T
  0.8236570891365034  0.1842851394398437  0.8529484125917079   T   T   T
  0.6685595660339771  0.5480488575827209  0.8765914027348174   T   T   T
  0.1963321997930123  0.0749638532249506  0.8919005460070508   T   T   T
  0.4828169897396108  0.6975680434384159  0.2817928524079605   T   T   T
  0.0092326992030110  0.0349372992071224  0.4479643189534173   T   T   T
  0.0719119536978141  0.5445912307259988  0.8091180550913961   T   T   T
  0.4198643488672218  0.1878019282578407  0.9205718816780291   T   T   T
 
  0.00000000E+00  0.00000000E+00  0.00000000E+00
  0.00000000E+00  0.00000000E+00  0.00000000E+00
  0.00000000E+00  0.00000000E+00  0.00000000E+00
  0.00000000E+00  0.00000000E+00  0.00000000E+00
  0.00000000E+00  0.00000000E+00  0.00000000E+00
  0.00000000E+00  0.00000000E+00  0.00000000E+00
  0.00000000E+00  0.00000000E+00  0.00000000E+00
  0.00000000E+00  0.00000000E+00  0.00000000E+00
  0.00000000E+00  0.00000000E+00  0.00000000E+00
  0.00000000E+00  0.00000000E+00  0.00000000E+00
  0.00000000E+00  0.00000000E+00  0.00000000E+00
  0.00000000E+00  0.00000000E+00  0.00000000E+00
  0.00000000E+00  0.00000000E+00  0.00000000E+00
  0.00000000E+00  0.00000000E+00  0.00000000E+00
  0.00000000E+00  0.00000000E+00  0.00000000E+00
  0.00000000E+00  0.00000000E+00  0.00000000E+00
  0.00000000E+00  0.00000000E+00  0.00000000E+00
  0.00000000E+00  0.00000000E+00  0.00000000E+00
  0.00000000E+00  0.00000000E+00  0.00000000E+00
  0.00000000E+00  0.00000000E+00  0.00000000E+00
  0.00000000E+00  0.00000000E+00  0.00000000E+00
  0.00000000E+00  0.00000000E+00  0.00000000E+00
  0.00000000E+00  0.00000000E+00  0.00000000E+00
  0.00000000E+00  0.00000000E+00  0.00000000E+00
  0.00000000E+00  0.00000000E+00  0.00000000E+00
  0.00000000E+00  0.00000000E+00  0.00000000E+00
  0.00000000E+00  0.00000000E+00  0.00000000E+00
  0.00000000E+00  0.00000000E+00  0.00000000E+00
  0.00000000E+00  0.00000000E+00  0.00000000E+00
  0.00000000E+00  0.00000000E+00  0.00000000E+00
  0.00000000E+00  0.00000000E+00  0.00000000E+00
  0.00000000E+00  0.00000000E+00  0.00000000E+00
  0.00000000E+00  0.00000000E+00  0.00000000E+00
  0.00000000E+00  0.00000000E+00  0.00000000E+00
  0.00000000E+00  0.00000000E+00  0.00000000E+00
  0.00000000E+00  0.00000000E+00  0.00000000E+00
  0.00000000E+00  0.00000000E+00  0.00000000E+00
  0.00000000E+00  0.00000000E+00  0.00000000E+00
  0.00000000E+00  0.00000000E+00  0.00000000E+00
  0.00000000E+00  0.00000000E+00  0.00000000E+00
  0.00000000E+00  0.00000000E+00  0.00000000E+00
  0.00000000E+00  0.00000000E+00  0.00000000E+00
  0.00000000E+00  0.00000000E+00  0.00000000E+00
  0.00000000E+00  0.00000000E+00  0.00000000E+00
