Primitive Cell                          
   1.00000000000000     
    10.5112664208694735    0.0110244464152037    0.0000773654525619
     0.1654216017202994   10.5876123993811415    0.0000553699268460
     0.0000869828334840    0.0000005946217964   10.3190353715776411
   Si   Hf   O    Li
    16     8    56    16
Selective dynamics
Direct
  0.2147309865867593  0.9385914059160583  0.0043040962773514   T   T   T
  0.2810149427002727  0.5314337335039612  0.0059819436841604   T   T   T
  0.7810092071993411  0.0314748782948369  0.0772828982547815   T   T   T
  0.7148051513122861  0.4385161050744382  0.0790169434779568   T   T   T
  0.3557910624313469  0.0447434529980953  0.2145855935173363   T   T   T
  0.1459387203741431  0.4282051760439885  0.2270620427746932   T   T   T
  0.5449837118584856  0.6354381298189080  0.3515096864537933   T   T   T
  0.9439560342708827  0.8397744725918603  0.3568107045556860   T   T   T
  0.9505080423198041  0.2710616205496805  0.5036671913520543   T   T   T
  0.5349343407462861  0.1921819235554578  0.5055062739008492   T   T   T
  0.0349107530934489  0.6921338256213377  0.5777966174923101   T   T   T
  0.4505325401129164  0.7710933566354409  0.5795777731289365   T   T   T
  0.4439729055585684  0.3397782011351123  0.7264956713748498   T   T   T
  0.0449961445838624  0.1354467665233064  0.7317394489180965   T   T   T
  0.6459108288140167  0.9282359245953961  0.8562723696417234   T   T   T
  0.8558874168074194  0.5447052721605075  0.8687563426915235   T   T   T
  0.4486960711349884  0.3505735658117803  0.2097861475419488   T   T   T
  0.0530291970664066  0.1198558477685736  0.2121856755360284   T   T   T
  0.8612527059189534  0.5434221828590861  0.3618568134736583   T   T   T
  0.6354016000356970  0.9310627796354151  0.3695036624972312   T   T   T
  0.1354446108765716  0.4310040937314431  0.7137116903666156   T   T   T
  0.3612413785640754  0.0434682495890644  0.7214418397601018   T   T   T
  0.5530697970214269  0.6198253491963248  0.8711457139696388   T   T   T
  0.9486325481324115  0.8505686031677299  0.8735148799833492   T   T   T
  0.8464623009167777  0.8969323487491736  0.0363235129560477   T   T   T
  0.1527732944374940  0.0755148780313328  0.0426691105286458   T   T   T
  0.6528014740381294  0.5754701377933922  0.0406350603065292   T   T   T
  0.3465367928356717  0.3969449685985519  0.0470071804560547   T   T   T
  0.6117491240796564  0.3254175059262190  0.0903615065728990   T   T   T
  0.8818017928080205  0.1476953701557598  0.0973242335122556   T   T   T
  0.3269896644655421  0.9186522988762061  0.1196467646653291   T   T   T
  0.1752353377087806  0.5529546835038132  0.1272909143146658   T   T   T
  0.4070818378915416  0.1654423558544189  0.1328071033170275   T   T   T
  0.0976421985657409  0.3062975966025167  0.1418612761972982   T   T   T
  0.7045847219917947  0.0198226363846398  0.2133750502073748   T   T   T
  0.7907382801563665  0.4363791522503608  0.2168549019435418   T   T   T
  0.4874740025059126  0.5282254428141702  0.2568152313676045   T   T   T
  0.0016890612627215  0.9466789001575183  0.2634628664217434   T   T   T
  0.5831870687575840  0.7632121067199310  0.2700484390279560   T   T   T
  0.9029549920595220  0.7130376888101674  0.2720779280038237   T   T   T
  0.2288223125814037  0.0864785953677099  0.3008196126789909   T   T   T
  0.2729734792267230  0.3866205252612618  0.3136358248849738   T   T   T
  0.4554529423134290  0.9913085025422067  0.3229566649896450   T   T   T
  0.0364234568660054  0.4842711819006226  0.3224719736141371   T   T   T
  0.9540067312732261  0.2002334627690954  0.3633330954934318   T   T   T
  0.5342093348432657  0.2811646135753382  0.3755674406230404   T   T   T
  0.6697759676199013  0.5742795627482317  0.4257784623240149   T   T   T
  0.8206268616835468  0.8896328456556233  0.4424404538404582   T   T   T
  0.4258845016925098  0.6639241723224533  0.4608435949863017   T   T   T
  0.0623865478532195  0.7987460927091640  0.4603250001717578   T   T   T
  0.6484608633972068  0.0873727465120730  0.4947205653763775   T   T   T
  0.8364414837917090  0.3804022701689002  0.4943881758516959   T   T   T
  0.5867714431643830  0.8278024008822262  0.5356238863830189   T   T   T
  0.3951073787261306  0.1372549212696951  0.5428282477323280   T   T   T
  0.8950762078163309  0.6372377431312435  0.5404644924317827   T   T   T
  0.0867851387259707  0.3277271523092768  0.5475754076177788   T   T   T
  0.3364308787225136  0.8803738516363516  0.5889499663744443   T   T   T
  0.1484358761128912  0.5873373202235249  0.5885134165131427   T   T   T
  0.5624104856503136  0.2987646129146400  0.6229803633218930   T   T   T
  0.9258905324737574  0.1638700077717362  0.6223920947773431   T   T   T
  0.3206600671703907  0.3896036410274624  0.6408476098971184   T   T   T
  0.1697796281259883  0.0742092528326304  0.6574540787895777   T   T   T
  0.0341497079691608  0.7810983117049427  0.7077369367483179   T   T   T
  0.4541770989279227  0.7002472608887611  0.7199262640444376   T   T   T
  0.5363945770143540  0.9842697895947735  0.7608382749488678   T   T   T
  0.9554994743252389  0.4912844330805077  0.7603515474315223   T   T   T
  0.7729329147289056  0.8865679810233078  0.7697076016925305   T   T   T
  0.7288798684745640  0.5864201372163313  0.7825287917339699   T   T   T
  0.4029808530357678  0.2130303049502151  0.8112333899759704   T   T   T
  0.0831693815522921  0.2631562955882323  0.8131647963016425   T   T   T
  0.5017059695812600  0.4466867763936206  0.8198698720088256   T   T   T
  0.9874538606091540  0.0281754577068670  0.8264301348430365   T   T   T
  0.2907555652586615  0.9364277385541609  0.8664939392581366   T   T   T
  0.2046302936869729  0.5196320212159449  0.8699422091391540   T   T   T
  0.5975632377118623  0.8062894183498139  0.9414639585212057   T   T   T
  0.9071594291447013  0.6653943754202337  0.9505306779198454   T   T   T
  0.6751915233320693  0.0529629809495401  0.9560164083553769   T   T   T
  0.8270640253657596  0.4186191858468867  0.9636911534192651   T   T   T
  0.3817943088240429  0.6477064127782026  0.9859307248496223   T   T   T
  0.1116892332721589  0.8254785906217692  0.9929468209670183   T   T   T
  0.2476743981047484  0.2388883083232888  0.0107908213865850   T   T   T
  0.7476056066027386  0.7388762853612835  0.0727278424188041   T   T   T
  0.4677294017723314  0.7818388170457483  0.1026209200525126   T   T   T
  0.0345327059050589  0.6894816590293170  0.1052764046336150   T   T   T
  0.7951051610377524  0.2413830071690404  0.2530440029698315   T   T   T
  0.3173744161758892  0.0014256360332980  0.4475086719678550   T   T   T
  0.6459677752603796  0.4015479904352787  0.4779196337007570   T   T   T
  0.2927811414720706  0.5272875012437749  0.4791124608163424   T   T   T
  0.2541794076949124  0.2692792066584156  0.4813111321035348   T   T   T
  0.7928565103052405  0.0272438481814744  0.6039564885970621   T   T   T
  0.7541502808562336  0.7693006274257314  0.6019445943928705   T   T   T
  0.1459593141800730  0.9014629539915795  0.6054164258068586   T   T   T
  0.8174406909000184  0.5014148518575811  0.6358517330467431   T   T   T
  0.2954180841668872  0.7416174356676956  0.8302586142939336   T   T   T
  0.9677985919771545  0.2817571851699717  0.9806016939567269   T   T   T
  0.5345040320311663  0.1894841671499830  0.9780164518024115   T   T   T
 
  0.00000000E+00  0.00000000E+00  0.00000000E+00
  0.00000000E+00  0.00000000E+00  0.00000000E+00
  0.00000000E+00  0.00000000E+00  0.00000000E+00
  0.00000000E+00  0.00000000E+00  0.00000000E+00
  0.00000000E+00  0.00000000E+00  0.00000000E+00
  0.00000000E+00  0.00000000E+00  0.00000000E+00
  0.00000000E+00  0.00000000E+00  0.00000000E+00
  0.00000000E+00  0.00000000E+00  0.00000000E+00
  0.00000000E+00  0.00000000E+00  0.00000000E+00
  0.00000000E+00  0.00000000E+00  0.00000000E+00
  0.00000000E+00  0.00000000E+00  0.00000000E+00
  0.00000000E+00  0.00000000E+00  0.00000000E+00
  0.00000000E+00  0.00000000E+00  0.00000000E+00
  0.00000000E+00  0.00000000E+00  0.00000000E+00
  0.00000000E+00  0.00000000E+00  0.00000000E+00
  0.00000000E+00  0.00000000E+00  0.00000000E+00
  0.00000000E+00  0.00000000E+00  0.00000000E+00
  0.00000000E+00  0.00000000E+00  0.00000000E+00
  0.00000000E+00  0.00000000E+00  0.00000000E+00
  0.00000000E+00  0.00000000E+00  0.00000000E+00
  0.00000000E+00  0.00000000E+00  0.00000000E+00
  0.00000000E+00  0.00000000E+00  0.00000000E+00
  0.00000000E+00  0.00000000E+00  0.00000000E+00
  0.00000000E+00  0.00000000E+00  0.00000000E+00
  0.00000000E+00  0.00000000E+00  0.00000000E+00
  0.00000000E+00  0.00000000E+00  0.00000000E+00
  0.00000000E+00  0.00000000E+00  0.00000000E+00
  0.00000000E+00  0.00000000E+00  0.00000000E+00
  0.00000000E+00  0.00000000E+00  0.00000000E+00
  0.00000000E+00  0.00000000E+00  0.00000000E+00
  0.00000000E+00  0.00000000E+00  0.00000000E+00
  0.00000000E+00  0.00000000E+00  0.00000000E+00
  0.00000000E+00  0.00000000E+00  0.00000000E+00
  0.00000000E+00  0.00000000E+00  0.00000000E+00
  0.00000000E+00  0.00000000E+00  0.00000000E+00
  0.00000000E+00  0.00000000E+00  0.00000000E+00
  0.00000000E+00  0.00000000E+00  0.00000000E+00
  0.00000000E+00  0.00000000E+00  0.00000000E+00
  0.00000000E+00  0.00000000E+00  0.00000000E+00
  0.00000000E+00  0.00000000E+00  0.00000000E+00
  0.00000000E+00  0.00000000E+00  0.00000000E+00
  0.00000000E+00  0.00000000E+00  0.00000000E+00
  0.00000000E+00  0.00000000E+00  0.00000000E+00
  0.00000000E+00  0.00000000E+00  0.00000000E+00
  0.00000000E+00  0.00000000E+00  0.00000000E+00
  0.00000000E+00  0.00000000E+00  0.00000000E+00
  0.00000000E+00  0.00000000E+00  0.00000000E+00
  0.00000000E+00  0.00000000E+00  0.00000000E+00
  0.00000000E+00  0.00000000E+00  0.00000000E+00
  0.00000000E+00  0.00000000E+00  0.00000000E+00
  0.00000000E+00  0.00000000E+00  0.00000000E+00
  0.00000000E+00  0.00000000E+00  0.00000000E+00
  0.00000000E+00  0.00000000E+00  0.00000000E+00
  0.00000000E+00  0.00000000E+00  0.00000000E+00
  0.00000000E+00  0.00000000E+00  0.00000000E+00
  0.00000000E+00  0.00000000E+00  0.00000000E+00
  0.00000000E+00  0.00000000E+00  0.00000000E+00
  0.00000000E+00  0.00000000E+00  0.00000000E+00
  0.00000000E+00  0.00000000E+00  0.00000000E+00
  0.00000000E+00  0.00000000E+00  0.00000000E+00
  0.00000000E+00  0.00000000E+00  0.00000000E+00
  0.00000000E+00  0.00000000E+00  0.00000000E+00
  0.00000000E+00  0.00000000E+00  0.00000000E+00
  0.00000000E+00  0.00000000E+00  0.00000000E+00
  0.00000000E+00  0.00000000E+00  0.00000000E+00
  0.00000000E+00  0.00000000E+00  0.00000000E+00
  0.00000000E+00  0.00000000E+00  0.00000000E+00
  0.00000000E+00  0.00000000E+00  0.00000000E+00
  0.00000000E+00  0.00000000E+00  0.00000000E+00
  0.00000000E+00  0.00000000E+00  0.00000000E+00
  0.00000000E+00  0.00000000E+00  0.00000000E+00
  0.00000000E+00  0.00000000E+00  0.00000000E+00
  0.00000000E+00  0.00000000E+00  0.00000000E+00
  0.00000000E+00  0.00000000E+00  0.00000000E+00
  0.00000000E+00  0.00000000E+00  0.00000000E+00
  0.00000000E+00  0.00000000E+00  0.00000000E+00
  0.00000000E+00  0.00000000E+00  0.00000000E+00
  0.00000000E+00  0.00000000E+00  0.00000000E+00
  0.00000000E+00  0.00000000E+00  0.00000000E+00
  0.00000000E+00  0.00000000E+00  0.00000000E+00
  0.00000000E+00  0.00000000E+00  0.00000000E+00
  0.00000000E+00  0.00000000E+00  0.00000000E+00
  0.00000000E+00  0.00000000E+00  0.00000000E+00
  0.00000000E+00  0.00000000E+00  0.00000000E+00
  0.00000000E+00  0.00000000E+00  0.00000000E+00
  0.00000000E+00  0.00000000E+00  0.00000000E+00
  0.00000000E+00  0.00000000E+00  0.00000000E+00
  0.00000000E+00  0.00000000E+00  0.00000000E+00
  0.00000000E+00  0.00000000E+00  0.00000000E+00
  0.00000000E+00  0.00000000E+00  0.00000000E+00
  0.00000000E+00  0.00000000E+00  0.00000000E+00
  0.00000000E+00  0.00000000E+00  0.00000000E+00
  0.00000000E+00  0.00000000E+00  0.00000000E+00
  0.00000000E+00  0.00000000E+00  0.00000000E+00
  0.00000000E+00  0.00000000E+00  0.00000000E+00
  0.00000000E+00  0.00000000E+00  0.00000000E+00
