Primitive Cell                          
   1.00000000000000     
    10.0545987221981150    0.0039368673442817   -0.0022555520105598
    -0.0064640942346016   12.6308928890116832    0.0013103943007258
     0.0022753669198655    0.0007429261739079    9.6774244278905890
   Ta   Si   O    Li
    16     8    64    16
Selective dynamics
Direct
  0.1554197261431298  0.3926455975197882  0.0168064310768585   T   T   T
  0.6961268667666900  0.8837346971612234  0.0277546045855885   T   T   T
  0.4219554953963964  0.2218028396071432  0.2233106094520991   T   T   T
  0.4304096887646196  0.7399799459099725  0.2369385108957118   T   T   T
  0.9259784222250715  0.2400442936028000  0.2495511951318363   T   T   T
  0.9347414409225721  0.7217676285859085  0.2634975990703339   T   T   T
  0.6605062861318558  0.3840645821034556  0.4589003788087638   T   T   T
  0.2012465142675026  0.8927023694860807  0.4699909705586833   T   T   T
  0.2011215708807939  0.3133965238305692  0.5168882204763463   T   T   T
  0.6604369780195611  0.8221188576796976  0.5274877484868625   T   T   T
  0.9344485664380429  0.4842645212085017  0.7231527406353138   T   T   T
  0.9259611055458379  0.9661088720707198  0.7369751036889127   T   T   T
  0.4305690872987924  0.4659691653524121  0.7495484030577373   T   T   T
  0.4221476093612395  0.9842605431380065  0.7633070218783118   T   T   T
  0.6960509637408663  0.3221102601466157  0.9588847039125099   T   T   T
  0.1553666392840682  0.8134953883566496  0.9696836917711167   T   T   T
  0.1596630730125170  0.0462076755222967  0.1823880468784438   T   T   T
  0.6701768679534865  0.5481339805197152  0.1833479266153830   T   T   T
  0.6863140782357817  0.0481092915026267  0.3027145176928485   T   T   T
  0.1966332883585622  0.5461717252566842  0.3043918886797030   T   T   T
  0.1967184491130780  0.6598526543819361  0.6824985820352936   T   T   T
  0.6864268181820492  0.1580115214022300  0.6834931158098030   T   T   T
  0.6700806606107221  0.6579341939942012  0.8027529023369908   T   T   T
  0.1598348435064096  0.1597693361509158  0.8043622404081958   T   T   T
  0.0385940987020419  0.7253507604963687  0.0750907957854778   T   T   T
  0.8196324027681001  0.2466046402519098  0.0784188250812861   T   T   T
  0.3113316669162955  0.7431098739035633  0.0765181168545439   T   T   T
  0.5504739198402007  0.2290710926451354  0.0804768335910282   T   T   T
  0.1483640384918630  0.9418475898918572  0.0804541276533328   T   T   T
  0.6466777752479373  0.4422595545842753  0.0852947572363973   T   T   T
  0.3134563920591944  0.3214426417935030  0.1339411985322414   T   T   T
  0.5295781709870155  0.8520266736927908  0.1363356853953732   T   T   T
  0.7033070005282980  0.0177416977214051  0.1382123684034724   T   T   T
  0.8150810600723943  0.8133477086037146  0.1430575354647132   T   T   T
  0.2092955088673492  0.5151821422415352  0.1414487387223744   T   T   T
  0.0362546018590777  0.1278169396594109  0.1506914057482049   T   T   T
  0.5495720987956858  0.6320708035216569  0.1531109588084689   T   T   T
  0.0293423449959462  0.3580260708664085  0.1603089700931548   T   T   T
  0.8244853839489181  0.5889270213404387  0.1645294335351295   T   T   T
  0.3103523960598764  0.0969319149024983  0.1632596645681161   T   T   T
  0.0458608861590122  0.5967522306481854  0.3235918556516850   T   T   T
  0.5319700164670849  0.0887720743022271  0.3213216388259426   T   T   T
  0.3273967357994181  0.8579971863858233  0.3266193554988561   T   T   T
  0.8066523610475258  0.1322262671279546  0.3332718396630625   T   T   T
  0.3199963725997463  0.6279793053027589  0.3358374700142406   T   T   T
  0.1471547157033655  0.0150854595475707  0.3452617667750957   T   T   T
  0.5415875179247394  0.3132609720854873  0.3438079825119047   T   T   T
  0.6539224883635271  0.5176967785283040  0.3478881618284788   T   T   T
  0.8270906766834898  0.3519692349922963  0.3503352405016926   T   T   T
  0.0431614206025870  0.8213459101415168  0.3528706767187018   T   T   T
  0.7096560762311697  0.9423527860553307  0.4010976622128695   T   T   T
  0.8061545090064541  0.7290518135599768  0.4062246422796392   T   T   T
  0.2082690919272920  0.4418001266977498  0.4061565801084654   T   T   T
  0.0451835655798263  0.2429340169185039  0.4099914815283796   T   T   T
  0.5369714272657973  0.7464388203199235  0.4078878465634901   T   T   T
  0.3179509655765003  0.2252975688721008  0.4115756649026920   T   T   T
  0.3179812714798942  0.9809292129884568  0.5751375758334802   T   T   T
  0.5368469704299628  0.4595640823163833  0.5784819001177084   T   T   T
  0.0450799449099790  0.9630743823563392  0.5765581763828678   T   T   T
  0.8060116910252546  0.4770867834159489  0.5803168485952952   T   T   T
  0.2082014513944088  0.7643068113873852  0.5807785562092960   T   T   T
  0.7096679214013264  0.2638855018377413  0.5853246882533867   T   T   T
  0.0428754268986680  0.3846640439115490  0.6336791754266642   T   T   T
  0.8267965636320653  0.8542153408167223  0.6361384435115198   T   T   T
  0.6532053713482853  0.6883191594423366  0.6382989184784620   T   T   T
  0.5414185930337325  0.8927082758760463  0.6427034321624845   T   T   T
  0.1470564727545352  0.1908739341933554  0.6415068966214506   T   T   T
  0.3201330097675310  0.5781667673698507  0.6508728555162335   T   T   T
  0.8070220755826938  0.0741324506740781  0.6531791727669471   T   T   T
  0.3272345225328550  0.3478856486604087  0.6603909578568619   T   T   T
  0.5321132879253128  0.1171618366734393  0.6646971462201989   T   T   T
  0.0460455010032632  0.6091718214358153  0.6632330469734171   T   T   T
  0.3106568786585058  0.1091902427667080  0.8235213113745203   T   T   T
  0.8244064468835930  0.6172157380688859  0.8213735127060318   T   T   T
  0.0292612117186621  0.8479871937513863  0.8261895886751489   T   T   T
  0.5496718383701520  0.5738733744660891  0.8333572250388457   T   T   T
  0.0364151488210780  0.0780533601887328  0.8360090292301123   T   T   T
  0.2094145753213539  0.6908579348218140  0.8453718874857756   T   T   T
  0.8148208795090994  0.3926726032544252  0.8434291602617918   T   T   T
  0.7026182699595296  0.1882909305347980  0.8481167235893778   T   T   T
  0.5294948589652719  0.3540790897373967  0.8503579529850640   T   T   T
  0.3135318184504996  0.8846844111234375  0.8527836119286292   T   T   T
  0.6468368876339881  0.7637034926038382  0.9011748023053272   T   T   T
  0.5505286564338121  0.9769310942592142  0.9062052074120217   T   T   T
  0.1484196646653544  0.2642109951571143  0.9061752643440499   T   T   T
  0.3114389438312273  0.4630579713901994  0.9101651856316764   T   T   T
  0.8196392196399458  0.9592114613333251  0.9079690899667270   T   T   T
  0.0384879114132275  0.4807451174198505  0.9114317247690948   T   T   T
  0.4487764328079820  0.4138936165118352  0.0441787824274797   T   T   T
  0.4268790143683532  0.9733537037205409  0.2198250090110818   T   T   T
  0.9293339085530903  0.4733713524130962  0.2666692822325558   T   T   T
  0.9077744183156042  0.9139645021979419  0.4425291221176195   T   T   T
  0.4257670642827946  0.1030853495847168  0.4931866511765435   T   T   T
  0.0838759204346147  0.1030105137066002  0.4933716047807906   T   T   T
  0.7392843266326565  0.6030278166598038  0.4932293976987125   T   T   T
  0.4488374310635592  0.6038990698312432  0.4938543502171342   T   T   T
  0.9077484930731359  0.2918992700870220  0.5440277007567573   T   T   T
  0.9294661031584610  0.7328043818580312  0.7195763509066637   T   T   T
  0.4271164535907701  0.2326564320025000  0.7668093497847508   T   T   T
  0.4487655929433316  0.7921964559970647  0.9425614733165162   T   T   T
  0.9308170315172504  0.6031485774028127  0.9930769036538791   T   T   T
  0.6169425118476752  0.1029872293583125  0.9933926085467419   T   T   T
  0.2727507651627334  0.6030199240095726  0.9933650858787288   T   T   T
  0.9074168597226375  0.1027198160784621  0.9935407581143565   T   T   T
 
  0.00000000E+00  0.00000000E+00  0.00000000E+00
  0.00000000E+00  0.00000000E+00  0.00000000E+00
  0.00000000E+00  0.00000000E+00  0.00000000E+00
  0.00000000E+00  0.00000000E+00  0.00000000E+00
  0.00000000E+00  0.00000000E+00  0.00000000E+00
  0.00000000E+00  0.00000000E+00  0.00000000E+00
  0.00000000E+00  0.00000000E+00  0.00000000E+00
  0.00000000E+00  0.00000000E+00  0.00000000E+00
  0.00000000E+00  0.00000000E+00  0.00000000E+00
  0.00000000E+00  0.00000000E+00  0.00000000E+00
  0.00000000E+00  0.00000000E+00  0.00000000E+00
  0.00000000E+00  0.00000000E+00  0.00000000E+00
  0.00000000E+00  0.00000000E+00  0.00000000E+00
  0.00000000E+00  0.00000000E+00  0.00000000E+00
  0.00000000E+00  0.00000000E+00  0.00000000E+00
  0.00000000E+00  0.00000000E+00  0.00000000E+00
  0.00000000E+00  0.00000000E+00  0.00000000E+00
  0.00000000E+00  0.00000000E+00  0.00000000E+00
  0.00000000E+00  0.00000000E+00  0.00000000E+00
  0.00000000E+00  0.00000000E+00  0.00000000E+00
  0.00000000E+00  0.00000000E+00  0.00000000E+00
  0.00000000E+00  0.00000000E+00  0.00000000E+00
  0.00000000E+00  0.00000000E+00  0.00000000E+00
  0.00000000E+00  0.00000000E+00  0.00000000E+00
  0.00000000E+00  0.00000000E+00  0.00000000E+00
  0.00000000E+00  0.00000000E+00  0.00000000E+00
  0.00000000E+00  0.00000000E+00  0.00000000E+00
  0.00000000E+00  0.00000000E+00  0.00000000E+00
  0.00000000E+00  0.00000000E+00  0.00000000E+00
  0.00000000E+00  0.00000000E+00  0.00000000E+00
  0.00000000E+00  0.00000000E+00  0.00000000E+00
  0.00000000E+00  0.00000000E+00  0.00000000E+00
  0.00000000E+00  0.00000000E+00  0.00000000E+00
  0.00000000E+00  0.00000000E+00  0.00000000E+00
  0.00000000E+00  0.00000000E+00  0.00000000E+00
  0.00000000E+00  0.00000000E+00  0.00000000E+00
  0.00000000E+00  0.00000000E+00  0.00000000E+00
  0.00000000E+00  0.00000000E+00  0.00000000E+00
  0.00000000E+00  0.00000000E+00  0.00000000E+00
  0.00000000E+00  0.00000000E+00  0.00000000E+00
  0.00000000E+00  0.00000000E+00  0.00000000E+00
  0.00000000E+00  0.00000000E+00  0.00000000E+00
  0.00000000E+00  0.00000000E+00  0.00000000E+00
  0.00000000E+00  0.00000000E+00  0.00000000E+00
  0.00000000E+00  0.00000000E+00  0.00000000E+00
  0.00000000E+00  0.00000000E+00  0.00000000E+00
  0.00000000E+00  0.00000000E+00  0.00000000E+00
  0.00000000E+00  0.00000000E+00  0.00000000E+00
  0.00000000E+00  0.00000000E+00  0.00000000E+00
  0.00000000E+00  0.00000000E+00  0.00000000E+00
  0.00000000E+00  0.00000000E+00  0.00000000E+00
  0.00000000E+00  0.00000000E+00  0.00000000E+00
  0.00000000E+00  0.00000000E+00  0.00000000E+00
  0.00000000E+00  0.00000000E+00  0.00000000E+00
  0.00000000E+00  0.00000000E+00  0.00000000E+00
  0.00000000E+00  0.00000000E+00  0.00000000E+00
  0.00000000E+00  0.00000000E+00  0.00000000E+00
  0.00000000E+00  0.00000000E+00  0.00000000E+00
  0.00000000E+00  0.00000000E+00  0.00000000E+00
  0.00000000E+00  0.00000000E+00  0.00000000E+00
  0.00000000E+00  0.00000000E+00  0.00000000E+00
  0.00000000E+00  0.00000000E+00  0.00000000E+00
  0.00000000E+00  0.00000000E+00  0.00000000E+00
  0.00000000E+00  0.00000000E+00  0.00000000E+00
  0.00000000E+00  0.00000000E+00  0.00000000E+00
  0.00000000E+00  0.00000000E+00  0.00000000E+00
  0.00000000E+00  0.00000000E+00  0.00000000E+00
  0.00000000E+00  0.00000000E+00  0.00000000E+00
  0.00000000E+00  0.00000000E+00  0.00000000E+00
  0.00000000E+00  0.00000000E+00  0.00000000E+00
  0.00000000E+00  0.00000000E+00  0.00000000E+00
  0.00000000E+00  0.00000000E+00  0.00000000E+00
  0.00000000E+00  0.00000000E+00  0.00000000E+00
  0.00000000E+00  0.00000000E+00  0.00000000E+00
  0.00000000E+00  0.00000000E+00  0.00000000E+00
  0.00000000E+00  0.00000000E+00  0.00000000E+00
  0.00000000E+00  0.00000000E+00  0.00000000E+00
  0.00000000E+00  0.00000000E+00  0.00000000E+00
  0.00000000E+00  0.00000000E+00  0.00000000E+00
  0.00000000E+00  0.00000000E+00  0.00000000E+00
  0.00000000E+00  0.00000000E+00  0.00000000E+00
  0.00000000E+00  0.00000000E+00  0.00000000E+00
  0.00000000E+00  0.00000000E+00  0.00000000E+00
  0.00000000E+00  0.00000000E+00  0.00000000E+00
  0.00000000E+00  0.00000000E+00  0.00000000E+00
  0.00000000E+00  0.00000000E+00  0.00000000E+00
  0.00000000E+00  0.00000000E+00  0.00000000E+00
  0.00000000E+00  0.00000000E+00  0.00000000E+00
  0.00000000E+00  0.00000000E+00  0.00000000E+00
  0.00000000E+00  0.00000000E+00  0.00000000E+00
  0.00000000E+00  0.00000000E+00  0.00000000E+00
  0.00000000E+00  0.00000000E+00  0.00000000E+00
  0.00000000E+00  0.00000000E+00  0.00000000E+00
  0.00000000E+00  0.00000000E+00  0.00000000E+00
  0.00000000E+00  0.00000000E+00  0.00000000E+00
  0.00000000E+00  0.00000000E+00  0.00000000E+00
  0.00000000E+00  0.00000000E+00  0.00000000E+00
  0.00000000E+00  0.00000000E+00  0.00000000E+00
  0.00000000E+00  0.00000000E+00  0.00000000E+00
  0.00000000E+00  0.00000000E+00  0.00000000E+00
  0.00000000E+00  0.00000000E+00  0.00000000E+00
  0.00000000E+00  0.00000000E+00  0.00000000E+00
  0.00000000E+00  0.00000000E+00  0.00000000E+00
  0.00000000E+00  0.00000000E+00  0.00000000E+00
