Primitive Cell                          
   1.00000000000000     
    16.1574419668626987   -0.0025221075480747    0.0012104302086276
     0.0008140447406262    8.8262969038227279    0.0167980601305201
     0.0012303415737114    0.0096631615815248    8.8590379084541304
   Si   Nb   O    Li
    16     8    56     8
Selective dynamics
Direct
  0.7774784115415727  0.3835977186993560  0.0055237971169291   T   T   T
  0.5760566561494755  0.3850317118225917  0.0083951333322290   T   T   T
  0.0762538574181590  0.6200183349507498  0.0140845958541220   T   T   T
  0.2728298421838602  0.6216122035348945  0.0179922586283752   T   T   T
  0.2746684992405122  0.1300727949778846  0.2551272810615544   T   T   T
  0.0764747662119376  0.1309878725358757  0.2557692216560241   T   T   T
  0.7728713916924050  0.8727232268921981  0.2670616206608329   T   T   T
  0.5752506821010215  0.8766313255236398  0.2688932582806061   T   T   T
  0.0748713452842082  0.8841615000411736  0.5056543497819206   T   T   T
  0.2762690820888523  0.8858363717658335  0.5080392382510226   T   T   T
  0.7761916254495631  0.1192388164154821  0.5136025187769988   T   T   T
  0.5795918901354185  0.1205834703827477  0.5175849185593506   T   T   T
  0.5772625105989420  0.6294630790907121  0.7555685209494811   T   T   T
  0.7755412758114488  0.6306572927250045  0.7557993800266800   T   T   T
  0.0792766630890682  0.3732911379771693  0.7677458757396778   T   T   T
  0.2768288805506742  0.3774189222628905  0.7694908398194471   T   T   T
  0.5685549250916111  0.4993001398421271  0.3870498676299050   T   T   T
  0.3138043658327305  0.5019955484525056  0.3913651878492601   T   T   T
  0.8155768458575139  0.4978840549040200  0.3895620049646027   T   T   T
  0.0684684224723711  0.5077810205683093  0.3917860024533937   T   T   T
  0.2836512269715357  0.0000574632582726  0.8866845112769823   T   T   T
  0.5382238457283393  0.0014838760911360  0.8910125580078940   T   T   T
  0.0366810828845558  0.9984697479360420  0.8896894785039891   T   T   T
  0.7837811383914683  0.0071967436498639  0.8912004829260738   T   T   T
  0.6767397717428310  0.3754961824388090  0.0125461648764542   T   T   T
  0.1746375713674198  0.5918624378065758  0.0408099799985067   T   T   T
  0.3131583153529647  0.0967034958606732  0.0882820206344306   T   T   T
  0.0382149949119679  0.0850566879896846  0.0926570189342826   T   T   T
  0.7891209637223611  0.9321834467172039  0.0941272289926829   T   T   T
  0.5555645117938894  0.9288269369419737  0.0964275186596737   T   T   T
  0.0258807387647764  0.5829430882868891  0.1693445320665319   T   T   T
  0.5412667718206876  0.4477023630482648  0.1707801950222105   T   T   T
  0.8193871806356583  0.4170019363778437  0.1687528469205404   T   T   T
  0.3244584113200020  0.5937032402188436  0.1724278378310942   T   T   T
  0.1755400667475797  0.1121584608418758  0.2462603826368834   T   T   T
  0.0494995949539287  0.3049704899213594  0.2918429167964121   T   T   T
  0.8238126825756069  0.7168558553143640  0.2969121565901531   T   T   T
  0.6741771432816890  0.8513692499423868  0.2915798768409630   T   T   T
  0.2996862582026552  0.3008444970070414  0.3049560146561774   T   T   T
  0.5259854515595137  0.7202498039548075  0.3090605477242150   T   T   T
  0.6795376011700043  0.5267861543298125  0.3734707983014474   T   T   T
  0.1791892442407743  0.5326272291630474  0.3700882431961574   T   T   T
  0.8087180354340191  0.0020812461017243  0.3825845743978959   T   T   T
  0.9293959062364578  0.4925832446410396  0.3844663603393599   T   T   T
  0.3087276617233030  0.0093163158422271  0.3814900170111528   T   T   T
  0.5433294761789753  0.0074533832712618  0.3867721121943575   T   T   T
  0.4277280642795063  0.5001758150768865  0.3908440001964095   T   T   T
  0.0428506758514331  0.0162040772120022  0.3877261539539418   T   T   T
  0.0371576402735059  0.7242097767341917  0.4405684499669036   T   T   T
  0.5657678615189496  0.2953302372848654  0.4600502015204952   T   T   T
  0.7935681622719741  0.2933355177185959  0.4614238556393531   T   T   T
  0.3200540925943187  0.7239592383186704  0.4718210172911697   T   T   T
  0.1755863424238342  0.8762740186597711  0.5122040411937263   T   T   T
  0.6777756691893870  0.0910159112233089  0.5405571210922062   T   T   T
  0.5389086930899438  0.5954589268428734  0.5887224554419959   T   T   T
  0.8136620531257606  0.5840089683850636  0.5926893751016493   T   T   T
  0.0632662922608773  0.4327620022252887  0.5946878541599077   T   T   T
  0.2962235403257338  0.4297088630432597  0.5968442898222506   T   T   T
  0.8265935292840751  0.0820458091906602  0.6687323906857330   T   T   T
  0.3109854249394317  0.9488091227730848  0.6703599988902056   T   T   T
  0.0331433029805481  0.9177681720771531  0.6689839607041321   T   T   T
  0.5278851579011672  0.0925677480328773  0.6719868472526684   T   T   T
  0.6764634849699434  0.6124775987204103  0.7468427917059017   T   T   T
  0.8030350165756133  0.8043732024595087  0.7914373769235183   T   T   T
  0.0282705997610080  0.2174616138953596  0.7970485191985901   T   T   T
  0.1779394483518004  0.3517779259339946  0.7927662169472569   T   T   T
  0.5518858641608091  0.8001102653700016  0.8050846545883275   T   T   T
  0.3263420516955549  0.2210582297232051  0.8089401719606570   T   T   T
  0.1726232272621573  0.0274351640885939  0.8731094039233938   T   T   T
  0.6729504628958907  0.0313572595624336  0.8698518585200645   T   T   T
  0.0435515427823319  0.5027149946008436  0.8833110722880875   T   T   T
  0.9228813050094402  0.9925332570529122  0.8844228496546336   T   T   T
  0.5434434879676573  0.5087966196185079  0.8821889331682726   T   T   T
  0.3089872950007191  0.5080508324074415  0.8873909269390481   T   T   T
  0.4242914688031192  0.0005650065402278  0.8905566490630150   T   T   T
  0.8092043258254478  0.5159063859110304  0.8876962129068531   T   T   T
  0.8149078846664608  0.2237554806318229  0.9396672742287819   T   T   T
  0.2866722777379991  0.7961996516713299  0.9600000232131052   T   T   T
  0.0587805421446390  0.7940711243820289  0.9619240767471595   T   T   T
  0.5322282831334704  0.2233461210952115  0.9715406828745614   T   T   T
  0.9473089732421585  0.3969546556291590  0.1782436857568328   T   T   T
  0.4467785105129494  0.6038862165798307  0.1767997945260618   T   T   T
  0.9459461935948639  0.7144388904345647  0.2815071864137551   T   T   T
  0.4447662893310138  0.7101750553442017  0.4893960067842684   T   T   T
  0.9055133080250286  0.8963572258551409  0.6785093743729576   T   T   T
  0.4057872118965022  0.1045321540591360  0.6767261169409053   T   T   T
  0.9063783431742465  0.2142856649476670  0.7808004856246455   T   T   T
  0.4074165468174158  0.2105924506317507  0.9892315974386605   T   T   T
 
  0.00000000E+00  0.00000000E+00  0.00000000E+00
  0.00000000E+00  0.00000000E+00  0.00000000E+00
  0.00000000E+00  0.00000000E+00  0.00000000E+00
  0.00000000E+00  0.00000000E+00  0.00000000E+00
  0.00000000E+00  0.00000000E+00  0.00000000E+00
  0.00000000E+00  0.00000000E+00  0.00000000E+00
  0.00000000E+00  0.00000000E+00  0.00000000E+00
  0.00000000E+00  0.00000000E+00  0.00000000E+00
  0.00000000E+00  0.00000000E+00  0.00000000E+00
  0.00000000E+00  0.00000000E+00  0.00000000E+00
  0.00000000E+00  0.00000000E+00  0.00000000E+00
  0.00000000E+00  0.00000000E+00  0.00000000E+00
  0.00000000E+00  0.00000000E+00  0.00000000E+00
  0.00000000E+00  0.00000000E+00  0.00000000E+00
  0.00000000E+00  0.00000000E+00  0.00000000E+00
  0.00000000E+00  0.00000000E+00  0.00000000E+00
  0.00000000E+00  0.00000000E+00  0.00000000E+00
  0.00000000E+00  0.00000000E+00  0.00000000E+00
  0.00000000E+00  0.00000000E+00  0.00000000E+00
  0.00000000E+00  0.00000000E+00  0.00000000E+00
  0.00000000E+00  0.00000000E+00  0.00000000E+00
  0.00000000E+00  0.00000000E+00  0.00000000E+00
  0.00000000E+00  0.00000000E+00  0.00000000E+00
  0.00000000E+00  0.00000000E+00  0.00000000E+00
  0.00000000E+00  0.00000000E+00  0.00000000E+00
  0.00000000E+00  0.00000000E+00  0.00000000E+00
  0.00000000E+00  0.00000000E+00  0.00000000E+00
  0.00000000E+00  0.00000000E+00  0.00000000E+00
  0.00000000E+00  0.00000000E+00  0.00000000E+00
  0.00000000E+00  0.00000000E+00  0.00000000E+00
  0.00000000E+00  0.00000000E+00  0.00000000E+00
  0.00000000E+00  0.00000000E+00  0.00000000E+00
  0.00000000E+00  0.00000000E+00  0.00000000E+00
  0.00000000E+00  0.00000000E+00  0.00000000E+00
  0.00000000E+00  0.00000000E+00  0.00000000E+00
  0.00000000E+00  0.00000000E+00  0.00000000E+00
  0.00000000E+00  0.00000000E+00  0.00000000E+00
  0.00000000E+00  0.00000000E+00  0.00000000E+00
  0.00000000E+00  0.00000000E+00  0.00000000E+00
  0.00000000E+00  0.00000000E+00  0.00000000E+00
  0.00000000E+00  0.00000000E+00  0.00000000E+00
  0.00000000E+00  0.00000000E+00  0.00000000E+00
  0.00000000E+00  0.00000000E+00  0.00000000E+00
  0.00000000E+00  0.00000000E+00  0.00000000E+00
  0.00000000E+00  0.00000000E+00  0.00000000E+00
  0.00000000E+00  0.00000000E+00  0.00000000E+00
  0.00000000E+00  0.00000000E+00  0.00000000E+00
  0.00000000E+00  0.00000000E+00  0.00000000E+00
  0.00000000E+00  0.00000000E+00  0.00000000E+00
  0.00000000E+00  0.00000000E+00  0.00000000E+00
  0.00000000E+00  0.00000000E+00  0.00000000E+00
  0.00000000E+00  0.00000000E+00  0.00000000E+00
  0.00000000E+00  0.00000000E+00  0.00000000E+00
  0.00000000E+00  0.00000000E+00  0.00000000E+00
  0.00000000E+00  0.00000000E+00  0.00000000E+00
  0.00000000E+00  0.00000000E+00  0.00000000E+00
  0.00000000E+00  0.00000000E+00  0.00000000E+00
  0.00000000E+00  0.00000000E+00  0.00000000E+00
  0.00000000E+00  0.00000000E+00  0.00000000E+00
  0.00000000E+00  0.00000000E+00  0.00000000E+00
  0.00000000E+00  0.00000000E+00  0.00000000E+00
  0.00000000E+00  0.00000000E+00  0.00000000E+00
  0.00000000E+00  0.00000000E+00  0.00000000E+00
  0.00000000E+00  0.00000000E+00  0.00000000E+00
  0.00000000E+00  0.00000000E+00  0.00000000E+00
  0.00000000E+00  0.00000000E+00  0.00000000E+00
  0.00000000E+00  0.00000000E+00  0.00000000E+00
  0.00000000E+00  0.00000000E+00  0.00000000E+00
  0.00000000E+00  0.00000000E+00  0.00000000E+00
  0.00000000E+00  0.00000000E+00  0.00000000E+00
  0.00000000E+00  0.00000000E+00  0.00000000E+00
  0.00000000E+00  0.00000000E+00  0.00000000E+00
  0.00000000E+00  0.00000000E+00  0.00000000E+00
  0.00000000E+00  0.00000000E+00  0.00000000E+00
  0.00000000E+00  0.00000000E+00  0.00000000E+00
  0.00000000E+00  0.00000000E+00  0.00000000E+00
  0.00000000E+00  0.00000000E+00  0.00000000E+00
  0.00000000E+00  0.00000000E+00  0.00000000E+00
  0.00000000E+00  0.00000000E+00  0.00000000E+00
  0.00000000E+00  0.00000000E+00  0.00000000E+00
  0.00000000E+00  0.00000000E+00  0.00000000E+00
  0.00000000E+00  0.00000000E+00  0.00000000E+00
  0.00000000E+00  0.00000000E+00  0.00000000E+00
  0.00000000E+00  0.00000000E+00  0.00000000E+00
  0.00000000E+00  0.00000000E+00  0.00000000E+00
  0.00000000E+00  0.00000000E+00  0.00000000E+00
  0.00000000E+00  0.00000000E+00  0.00000000E+00
  0.00000000E+00  0.00000000E+00  0.00000000E+00
