Primitive Cell                          
   1.00000000000000     
     7.9945261788504176    0.0118913145172652   -0.0068866652925034
     0.0594159623931804   15.0946106792143357   -0.0099121333962958
     0.0554958366719870   -0.0488040516527946   10.3396783477758945
   Ta   Si   O    Li
    16     8    64    16
Selective dynamics
Direct
  0.1858324148263009  0.7142499440540107  0.0032173648203013   T   T   T
  0.5057628533857610  0.2157865673037733  0.0085361666984056   T   T   T
  0.9493174504909376  0.3607404424399050  0.2985614363087734   T   T   T
  0.2283913841667342  0.5569535736092632  0.3012726213062820   T   T   T
  0.4487842153461301  0.0582568595280364  0.3012577073643712   T   T   T
  0.7275009059851101  0.8646285810336778  0.3057886017086773   T   T   T
  0.5035822126588414  0.7087534019322632  0.5047794540670125   T   T   T
  0.6819488289792233  0.2155097883717687  0.5045472293689599   T   T   T
  0.9955820398958863  0.7123956374344758  0.5079052681871303   T   T   T
  0.1811197242785667  0.2069436704548409  0.5099943282220636   T   T   T
  0.4546466736171766  0.8674081424552753  0.7957458081510325   T   T   T
  0.9608863897187589  0.5559997664776191  0.8009656256257216   T   T   T
  0.7383664743271794  0.0616394252244419  0.8021794004572342   T   T   T
  0.2486845403182443  0.3656593911671990  0.8030345212888577   T   T   T
  0.0141836981261392  0.2076038631829249  0.9979769624634329   T   T   T
  0.6865924786671584  0.7095577214744679  0.9981479075368540   T   T   T
  0.2607523932001712  0.9251949332833433  0.0745471623083986   T   T   T
  0.9268330420928095  0.9993229577184692  0.0753571930690100   T   T   T
  0.7675531722088706  0.5023970868538257  0.0765068280630246   T   T   T
  0.4344384264515142  0.4279334864852729  0.0762275269773838   T   T   T
  0.7568831624261065  0.4282454721102127  0.5707955694863074   T   T   T
  0.9275895969689358  0.9247762143891833  0.5736611667261258   T   T   T
  0.4263866182155027  0.5033385532646690  0.5753909391113794   T   T   T
  0.2564750336062787  0.0009702574751884  0.5765311409271661   T   T   T
  0.4558831863074175  0.6860960719876275  0.0133010537835005   T   T   T
  0.9541168110758633  0.7356321921841271  0.0199755544835298   T   T   T
  0.7340965512665321  0.2349378266455489  0.0233601330627522   T   T   T
  0.4431399877074682  0.3239716968091315  0.1248839681455252   T   T   T
  0.9533780756293382  0.1022464912764747  0.1275397509292517   T   T   T
  0.2433497647580438  0.8229087873137644  0.1295181483142898   T   T   T
  0.7423969649452431  0.6045022701299771  0.1304224906440581   T   T   T
  0.0084203509736511  0.2900238896634377  0.1487669941414111   T   T   T
  0.6816842929900702  0.7904369377020188  0.1538938430782650   T   T   T
  0.1933908956343870  0.6415076213209190  0.1608078346282582   T   T   T
  0.4951503373470416  0.1416107743338415  0.1635805093531246   T   T   T
  0.2639661290204174  0.9887949496509876  0.2045524806778474   T   T   T
  0.4200449482574342  0.4915888894400666  0.2043271896061114   T   T   T
  0.9115960046765750  0.9377267996702727  0.2060236054830398   T   T   T
  0.7834414262186442  0.4392721884979807  0.2048227487880467   T   T   T
  0.5873218739448589  0.9595669570083416  0.2365447445981559   T   T   T
  0.1029583095510489  0.4579146071861118  0.2385884836467227   T   T   T
  0.7716019667025904  0.2787444237456285  0.3488188940169223   T   T   T
  0.9265399059964210  0.7893290399031656  0.3516392305319940   T   T   T
  0.4308818598779496  0.6309071636274837  0.3594937575317516   T   T   T
  0.2519010626457785  0.1293650154503752  0.3632986798803088   T   T   T
  0.0343574847911441  0.6169504189320847  0.3782274427487451   T   T   T
  0.5349599532795395  0.8055416275162202  0.3819427409498317   T   T   T
  0.6447323631810917  0.1104726617593528  0.3860188627132359   T   T   T
  0.1464017599108871  0.3103073985289342  0.3896621708087267   T   T   T
  0.9116491643929194  0.4282517074829002  0.4695126371793492   T   T   T
  0.7718202292211274  0.9314237613310041  0.4723326842206035   T   T   T
  0.2728894986234494  0.4922214074895379  0.4739635390914856   T   T   T
  0.4110493065174339  0.9929874127656859  0.4730728157907649   T   T   T
  0.4560851913551218  0.2451590228708653  0.4827587685846311   T   T   T
  0.5973256577517390  0.4738712596200685  0.4912554115248184   T   T   T
  0.0905524003421405  0.9665572860532308  0.4914737764734696   T   T   T
  0.7313211761126439  0.6837608486856794  0.5064982613183417   T   T   T
  0.9554276978791663  0.1847628740104454  0.5102641035132223   T   T   T
  0.2283340524020474  0.7308032545644494  0.5156698328395279   T   T   T
  0.7200619059400353  0.3253810226828548  0.6145406190108531   T   T   T
  0.9599244744016460  0.8228797776623011  0.6171858597391520   T   T   T
  0.2438520638851145  0.1040718518705432  0.6293657298411901   T   T   T
  0.4441473528795683  0.6045643797271651  0.6326924387085029   T   T   T
  0.6848491594965296  0.1301221833633406  0.6467858176757346   T   T   T
  0.2020724554271212  0.2945602735363124  0.6517388112080624   T   T   T
  0.9969540617657771  0.6352822295821312  0.6577725143500857   T   T   T
  0.4856500419808896  0.7847308642365647  0.6588294547635343   T   T   T
  0.7747313821540587  0.4847504523316957  0.7066025810412029   T   T   T
  0.4269888923760234  0.4394072382028753  0.7041542519573412   T   T   T
  0.9087633447477970  0.9844302433631711  0.7052060823283526   T   T   T
  0.2678242480581048  0.9385746492343188  0.7056297743563533   T   T   T
  0.5888282555915936  0.9647011797436207  0.7387238901359368   T   T   T
  0.1014962593610917  0.4611310317826707  0.7377374142035933   T   T   T
  0.2521428497250611  0.7940711031271235  0.8592868762544015   T   T   T
  0.9199289900159755  0.1369147152014349  0.8600297014354226   T   T   T
  0.7572980042283675  0.6275848794284542  0.8626475949349839   T   T   T
  0.4431025267056654  0.2961842943814617  0.8623494583299376   T   T   T
  0.1502170888543048  0.6198067428601846  0.8787424258664345   T   T   T
  0.5436282982935197  0.1187119680701159  0.8837135188911205   T   T   T
  0.6400340509990485  0.8125458471419620  0.8923177998582972   T   T   T
  0.0609250429956063  0.3123418278246675  0.8949519092948037   T   T   T
  0.4116894341165178  0.9345177820321666  0.9706889810487667   T   T   T
  0.2840837889323851  0.4370253802214776  0.9706615238948473   T   T   T
  0.7742206756649779  0.9928503250979404  0.9724548376495861   T   T   T
  0.9229756421476196  0.4933977952834425  0.9739711353708671   T   T   T
  0.2380998686799103  0.1719014278039452  0.9852665665848193   T   T   T
  0.0906231430377176  0.9576290469276572  0.9936014739532553   T   T   T
  0.6035839237078875  0.4625496843825374  0.9944911282716689   T   T   T
  0.6237370284141548  0.9074923898481018  0.0438011803578391   T   T   T
  0.0746104928302458  0.4081316293729174  0.0470445233574850   T   T   T
  0.4361029169356030  0.7355137358975057  0.2166264884411788   T   T   T
  0.7478362491169719  0.1767285498007283  0.2145011894489457   T   T   T
  0.9343329326072833  0.6785087063629618  0.2178015253431695   T   T   T
  0.1082276061680147  0.8692849432600909  0.2897247442187663   T   T   T
  0.0688549768413935  0.0587593666814996  0.2939178051187312   T   T   T
  0.6149469003351982  0.5353416885484279  0.3094430126337571   T   T   T
  0.3836075400526369  0.3098985374828729  0.3138110005799959   T   T   T
  0.1240494827512038  0.4052089672874786  0.5449959468228656   T   T   T
  0.6217099530864232  0.0170966100083447  0.5472372835484123   T   T   T
  0.2487792407759954  0.6878405681755595  0.7145246097788842   T   T   T
  0.5757589137756725  0.5541868950008038  0.7921607403731983   T   T   T
  0.6292714396823911  0.3654882755744211  0.7891400159569457   T   T   T
  0.0694136677239641  0.8918982945449798  0.8082577084116664   T   T   T
  0.3061330880003723  0.0969467815013090  0.8228471562205399   T   T   T
 
  0.00000000E+00  0.00000000E+00  0.00000000E+00
  0.00000000E+00  0.00000000E+00  0.00000000E+00
  0.00000000E+00  0.00000000E+00  0.00000000E+00
  0.00000000E+00  0.00000000E+00  0.00000000E+00
  0.00000000E+00  0.00000000E+00  0.00000000E+00
  0.00000000E+00  0.00000000E+00  0.00000000E+00
  0.00000000E+00  0.00000000E+00  0.00000000E+00
  0.00000000E+00  0.00000000E+00  0.00000000E+00
  0.00000000E+00  0.00000000E+00  0.00000000E+00
  0.00000000E+00  0.00000000E+00  0.00000000E+00
  0.00000000E+00  0.00000000E+00  0.00000000E+00
  0.00000000E+00  0.00000000E+00  0.00000000E+00
  0.00000000E+00  0.00000000E+00  0.00000000E+00
  0.00000000E+00  0.00000000E+00  0.00000000E+00
  0.00000000E+00  0.00000000E+00  0.00000000E+00
  0.00000000E+00  0.00000000E+00  0.00000000E+00
  0.00000000E+00  0.00000000E+00  0.00000000E+00
  0.00000000E+00  0.00000000E+00  0.00000000E+00
  0.00000000E+00  0.00000000E+00  0.00000000E+00
  0.00000000E+00  0.00000000E+00  0.00000000E+00
  0.00000000E+00  0.00000000E+00  0.00000000E+00
  0.00000000E+00  0.00000000E+00  0.00000000E+00
  0.00000000E+00  0.00000000E+00  0.00000000E+00
  0.00000000E+00  0.00000000E+00  0.00000000E+00
  0.00000000E+00  0.00000000E+00  0.00000000E+00
  0.00000000E+00  0.00000000E+00  0.00000000E+00
  0.00000000E+00  0.00000000E+00  0.00000000E+00
  0.00000000E+00  0.00000000E+00  0.00000000E+00
  0.00000000E+00  0.00000000E+00  0.00000000E+00
  0.00000000E+00  0.00000000E+00  0.00000000E+00
  0.00000000E+00  0.00000000E+00  0.00000000E+00
  0.00000000E+00  0.00000000E+00  0.00000000E+00
  0.00000000E+00  0.00000000E+00  0.00000000E+00
  0.00000000E+00  0.00000000E+00  0.00000000E+00
  0.00000000E+00  0.00000000E+00  0.00000000E+00
  0.00000000E+00  0.00000000E+00  0.00000000E+00
  0.00000000E+00  0.00000000E+00  0.00000000E+00
  0.00000000E+00  0.00000000E+00  0.00000000E+00
  0.00000000E+00  0.00000000E+00  0.00000000E+00
  0.00000000E+00  0.00000000E+00  0.00000000E+00
  0.00000000E+00  0.00000000E+00  0.00000000E+00
  0.00000000E+00  0.00000000E+00  0.00000000E+00
  0.00000000E+00  0.00000000E+00  0.00000000E+00
  0.00000000E+00  0.00000000E+00  0.00000000E+00
  0.00000000E+00  0.00000000E+00  0.00000000E+00
  0.00000000E+00  0.00000000E+00  0.00000000E+00
  0.00000000E+00  0.00000000E+00  0.00000000E+00
  0.00000000E+00  0.00000000E+00  0.00000000E+00
  0.00000000E+00  0.00000000E+00  0.00000000E+00
  0.00000000E+00  0.00000000E+00  0.00000000E+00
  0.00000000E+00  0.00000000E+00  0.00000000E+00
  0.00000000E+00  0.00000000E+00  0.00000000E+00
  0.00000000E+00  0.00000000E+00  0.00000000E+00
  0.00000000E+00  0.00000000E+00  0.00000000E+00
  0.00000000E+00  0.00000000E+00  0.00000000E+00
  0.00000000E+00  0.00000000E+00  0.00000000E+00
  0.00000000E+00  0.00000000E+00  0.00000000E+00
  0.00000000E+00  0.00000000E+00  0.00000000E+00
  0.00000000E+00  0.00000000E+00  0.00000000E+00
  0.00000000E+00  0.00000000E+00  0.00000000E+00
  0.00000000E+00  0.00000000E+00  0.00000000E+00
  0.00000000E+00  0.00000000E+00  0.00000000E+00
  0.00000000E+00  0.00000000E+00  0.00000000E+00
  0.00000000E+00  0.00000000E+00  0.00000000E+00
  0.00000000E+00  0.00000000E+00  0.00000000E+00
  0.00000000E+00  0.00000000E+00  0.00000000E+00
  0.00000000E+00  0.00000000E+00  0.00000000E+00
  0.00000000E+00  0.00000000E+00  0.00000000E+00
  0.00000000E+00  0.00000000E+00  0.00000000E+00
  0.00000000E+00  0.00000000E+00  0.00000000E+00
  0.00000000E+00  0.00000000E+00  0.00000000E+00
  0.00000000E+00  0.00000000E+00  0.00000000E+00
  0.00000000E+00  0.00000000E+00  0.00000000E+00
  0.00000000E+00  0.00000000E+00  0.00000000E+00
  0.00000000E+00  0.00000000E+00  0.00000000E+00
  0.00000000E+00  0.00000000E+00  0.00000000E+00
  0.00000000E+00  0.00000000E+00  0.00000000E+00
  0.00000000E+00  0.00000000E+00  0.00000000E+00
  0.00000000E+00  0.00000000E+00  0.00000000E+00
  0.00000000E+00  0.00000000E+00  0.00000000E+00
  0.00000000E+00  0.00000000E+00  0.00000000E+00
  0.00000000E+00  0.00000000E+00  0.00000000E+00
  0.00000000E+00  0.00000000E+00  0.00000000E+00
  0.00000000E+00  0.00000000E+00  0.00000000E+00
  0.00000000E+00  0.00000000E+00  0.00000000E+00
  0.00000000E+00  0.00000000E+00  0.00000000E+00
  0.00000000E+00  0.00000000E+00  0.00000000E+00
  0.00000000E+00  0.00000000E+00  0.00000000E+00
  0.00000000E+00  0.00000000E+00  0.00000000E+00
  0.00000000E+00  0.00000000E+00  0.00000000E+00
  0.00000000E+00  0.00000000E+00  0.00000000E+00
  0.00000000E+00  0.00000000E+00  0.00000000E+00
  0.00000000E+00  0.00000000E+00  0.00000000E+00
  0.00000000E+00  0.00000000E+00  0.00000000E+00
  0.00000000E+00  0.00000000E+00  0.00000000E+00
  0.00000000E+00  0.00000000E+00  0.00000000E+00
  0.00000000E+00  0.00000000E+00  0.00000000E+00
  0.00000000E+00  0.00000000E+00  0.00000000E+00
  0.00000000E+00  0.00000000E+00  0.00000000E+00
  0.00000000E+00  0.00000000E+00  0.00000000E+00
  0.00000000E+00  0.00000000E+00  0.00000000E+00
  0.00000000E+00  0.00000000E+00  0.00000000E+00
  0.00000000E+00  0.00000000E+00  0.00000000E+00
  0.00000000E+00  0.00000000E+00  0.00000000E+00
