Primitive Cell                          
   1.00000000000000     
     5.3977764841800946   -0.0370694634827899    0.0885925150687401
    -2.5287102530543581    4.6121414936382541   -0.0148638002896627
     0.2203023538932757    0.2430743352244177   37.1115224342611540
   Si   Ta   O    Li
    12     6    42     6
Selective dynamics
Direct
  0.3721204754708722  0.7032318098738344  0.0519956424687180   T   T   T
  0.6911089537422654  0.4134259189408951  0.1361823246223111   T   T   T
  0.7106289154772014  0.4317974926889292  0.2193883442721756   T   T   T
  0.0194650424838869  0.0368456898313667  0.3027251154846198   T   T   T
  0.0465350724916576  0.0508507751042231  0.3856478661256659   T   T   T
  0.3546598887480528  0.7550352545314638  0.4688524125016329   T   T   T
  0.3703351393073575  0.7544951027700506  0.5520711313125304   T   T   T
  0.6914618549005667  0.3639253806682134  0.6363781602841030   T   T   T
  0.7090755642418856  0.3634659193557681  0.7195629904759357   T   T   T
  0.0174075318603499  0.0673175967984250  0.8027218093962887   T   T   T
  0.0438713204477352  0.0811918583993219  0.8856405243628416   T   T   T
  0.3530182881061279  0.6856064677073235  0.9688127063989995   T   T   T
  0.0316077962544838  0.0583346899351653  0.0940977719451013   T   T   T
  0.3650616516624510  0.7346136369342489  0.2610487834382269   T   T   T
  0.7005497996591927  0.4031899644682255  0.4272747749669463   T   T   T
  0.0309375930969225  0.0593108896312131  0.5942309591033919   T   T   T
  0.3634083894450697  0.7151311169509285  0.7611040556626705   T   T   T
  0.6984716062852456  0.3834936493540511  0.9272296354935747   T   T   T
  0.3644749523007320  0.8152293465497564  0.0101665156708819   T   T   T
  0.2269633553189720  0.3471084190014011  0.0521870890056206   T   T   T
  0.1973755890144346  0.8273541931862312  0.0751736033759229   T   T   T
  0.6987055751619522  0.8422809949457175  0.0640233470789298   T   T   T
  0.3645420156763635  0.2742761401265597  0.1241701594307330   T   T   T
  0.8661103929326401  0.2890909365778285  0.1130746603364301   T   T   T
  0.8363816816721084  0.7695722896835022  0.1360297149314462   T   T   T
  0.6990723876653675  0.3021377912193586  0.1780498384937417   T   T   T
  0.5572159513771737  0.6355827143076382  0.2191531725844911   T   T   T
  0.0390644040771804  0.6347928868339707  0.2301670374551108   T   T   T
  0.5471844913300785  0.1372699921168419  0.2437065509139060   T   T   T
  0.1826122478903116  0.3318359712063739  0.2784860473365356   T   T   T
  0.6908398164925842  0.8347922859210613  0.2919716267050134   T   T   T
  0.1718683442826077  0.8321705925401801  0.3028279720644065   T   T   T
  0.0327890843560610  0.1652837711726320  0.3441734600272000   T   T   T
  0.8934063456951193  0.6938895345031284  0.3855576432745522   T   T   T
  0.3751909635041670  0.1764126542785007  0.3963301097745457   T   T   T
  0.8837887657175472  0.1834660814175777  0.4098301484039553   T   T   T
  0.5177571723872276  0.6234250339125822  0.4445665381745201   T   T   T
  0.0263242475752037  0.6304922032494886  0.4581372699075033   T   T   T
  0.5081687314503469  0.1120632661001437  0.4690740664794859   T   T   T
  0.3660004740831440  0.6368801313535712  0.5102185264926433   T   T   T
  0.2255776816005550  0.9659317304668278  0.5521084867386108   T   T   T
  0.1930617105822563  0.4543850718054614  0.5749882086750517   T   T   T
  0.6959077627143699  0.9394630996496147  0.5645118170880181   T   T   T
  0.3658453099490870  0.1789605928470621  0.6239600635436773   T   T   T
  0.8686201437953898  0.6640704915928524  0.6134742247636709   T   T   T
  0.8365934221141131  0.1528984069713104  0.6363603646797671   T   T   T
  0.6962792048465047  0.4815526382909496  0.6782321844650951   T   T   T
  0.5562935679468666  0.0064066815450019  0.7193182735639851   T   T   T
  0.0378695130960267  0.4888328940693114  0.7301584732271706   T   T   T
  0.5458306522356864  0.4944041767420444  0.7439174739098604   T   T   T
  0.1803586458586679  0.9347882673669190  0.7785541657406512   T   T   T
  0.6887661775806180  0.9413935920248946  0.7920561166841509   T   T   T
  0.1703818318685748  0.4243281821270912  0.8028194436513587   T   T   T
  0.0310048560152580  0.9524167390707987  0.8442025457076241   T   T   T
  0.8912348443645470  0.2855493743602722  0.8854131748237606   T   T   T
  0.3724778654850383  0.2836666279316802  0.8963608388172446   T   T   T
  0.8813374719760887  0.7862674494527084  0.9098913396171184   T   T   T
  0.5162277378243942  0.9804241144154844  0.9445314705015448   T   T   T
  0.0247803288813060  0.4823221793607431  0.9579925424417794   T   T   T
  0.5064595353650176  0.4816759015305152  0.9691606771966406   T   T   T
  0.3631353370266694  0.1978009588774725  0.0105994323581768   T   T   T
  0.7004949606029029  0.9191786995041724  0.1776166668558830   T   T   T
  0.0325836822516763  0.5477118775156242  0.3441563978465325   T   T   T
  0.3635137332411063  0.2521770557962100  0.5106621477150384   T   T   T
  0.7005231459672814  0.8667161276201441  0.6777163752840849   T   T   T
  0.0311936942502697  0.5702656903541268  0.8441423637672472   T   T   T
 
  0.00000000E+00  0.00000000E+00  0.00000000E+00
  0.00000000E+00  0.00000000E+00  0.00000000E+00
  0.00000000E+00  0.00000000E+00  0.00000000E+00
  0.00000000E+00  0.00000000E+00  0.00000000E+00
  0.00000000E+00  0.00000000E+00  0.00000000E+00
  0.00000000E+00  0.00000000E+00  0.00000000E+00
  0.00000000E+00  0.00000000E+00  0.00000000E+00
  0.00000000E+00  0.00000000E+00  0.00000000E+00
  0.00000000E+00  0.00000000E+00  0.00000000E+00
  0.00000000E+00  0.00000000E+00  0.00000000E+00
  0.00000000E+00  0.00000000E+00  0.00000000E+00
  0.00000000E+00  0.00000000E+00  0.00000000E+00
  0.00000000E+00  0.00000000E+00  0.00000000E+00
  0.00000000E+00  0.00000000E+00  0.00000000E+00
  0.00000000E+00  0.00000000E+00  0.00000000E+00
  0.00000000E+00  0.00000000E+00  0.00000000E+00
  0.00000000E+00  0.00000000E+00  0.00000000E+00
  0.00000000E+00  0.00000000E+00  0.00000000E+00
  0.00000000E+00  0.00000000E+00  0.00000000E+00
  0.00000000E+00  0.00000000E+00  0.00000000E+00
  0.00000000E+00  0.00000000E+00  0.00000000E+00
  0.00000000E+00  0.00000000E+00  0.00000000E+00
  0.00000000E+00  0.00000000E+00  0.00000000E+00
  0.00000000E+00  0.00000000E+00  0.00000000E+00
  0.00000000E+00  0.00000000E+00  0.00000000E+00
  0.00000000E+00  0.00000000E+00  0.00000000E+00
  0.00000000E+00  0.00000000E+00  0.00000000E+00
  0.00000000E+00  0.00000000E+00  0.00000000E+00
  0.00000000E+00  0.00000000E+00  0.00000000E+00
  0.00000000E+00  0.00000000E+00  0.00000000E+00
  0.00000000E+00  0.00000000E+00  0.00000000E+00
  0.00000000E+00  0.00000000E+00  0.00000000E+00
  0.00000000E+00  0.00000000E+00  0.00000000E+00
  0.00000000E+00  0.00000000E+00  0.00000000E+00
  0.00000000E+00  0.00000000E+00  0.00000000E+00
  0.00000000E+00  0.00000000E+00  0.00000000E+00
  0.00000000E+00  0.00000000E+00  0.00000000E+00
  0.00000000E+00  0.00000000E+00  0.00000000E+00
  0.00000000E+00  0.00000000E+00  0.00000000E+00
  0.00000000E+00  0.00000000E+00  0.00000000E+00
  0.00000000E+00  0.00000000E+00  0.00000000E+00
  0.00000000E+00  0.00000000E+00  0.00000000E+00
  0.00000000E+00  0.00000000E+00  0.00000000E+00
  0.00000000E+00  0.00000000E+00  0.00000000E+00
  0.00000000E+00  0.00000000E+00  0.00000000E+00
  0.00000000E+00  0.00000000E+00  0.00000000E+00
  0.00000000E+00  0.00000000E+00  0.00000000E+00
  0.00000000E+00  0.00000000E+00  0.00000000E+00
  0.00000000E+00  0.00000000E+00  0.00000000E+00
  0.00000000E+00  0.00000000E+00  0.00000000E+00
  0.00000000E+00  0.00000000E+00  0.00000000E+00
  0.00000000E+00  0.00000000E+00  0.00000000E+00
  0.00000000E+00  0.00000000E+00  0.00000000E+00
  0.00000000E+00  0.00000000E+00  0.00000000E+00
  0.00000000E+00  0.00000000E+00  0.00000000E+00
  0.00000000E+00  0.00000000E+00  0.00000000E+00
  0.00000000E+00  0.00000000E+00  0.00000000E+00
  0.00000000E+00  0.00000000E+00  0.00000000E+00
  0.00000000E+00  0.00000000E+00  0.00000000E+00
  0.00000000E+00  0.00000000E+00  0.00000000E+00
  0.00000000E+00  0.00000000E+00  0.00000000E+00
  0.00000000E+00  0.00000000E+00  0.00000000E+00
  0.00000000E+00  0.00000000E+00  0.00000000E+00
  0.00000000E+00  0.00000000E+00  0.00000000E+00
  0.00000000E+00  0.00000000E+00  0.00000000E+00
  0.00000000E+00  0.00000000E+00  0.00000000E+00
