Primitive Cell                          
   1.00000000000000     
    10.8150676051457015    0.0215021176108867    0.0012063732886791
    -0.1099010282194391   13.4364197254287401    0.0090349391566075
     0.0410918912160822    0.0100037459961574    8.1106800550299276
   Nb   Si   O    Li
    12     8    52    12
Selective dynamics
Direct
  0.3370138942744276  0.1638635419393566  0.2484298088719683   T   T   T
  0.6886923661297004  0.8696810934642940  0.2558300586804449   T   T   T
  0.0095224554884297  0.7493610910444488  0.2542525457964899   T   T   T
  0.3298370059323048  0.8803777379130935  0.2560933650839132   T   T   T
  0.6924145235159358  0.1531231804048119  0.3028042471863515   T   T   T
  0.0216838500873990  0.2856408493674536  0.2921642103022037   T   T   T
  0.3443001168435131  0.1623466857222695  0.7637017063280211   T   T   T
  0.3341314441170411  0.8797070725390341  0.7616235152001494   T   T   T
  0.6890215210109503  0.8737239681469049  0.7704124881985948   T   T   T
  0.0062964197133439  0.7476088553668134  0.7700009270836574   T   T   T
  0.0224231248554645  0.2838880998497544  0.8073010740791133   T   T   T
  0.7015978137409533  0.1562780181361418  0.8084281278833174   T   T   T
  0.2886362213474385  0.4122522840651186  0.2187226048448281   T   T   T
  0.7373478331436232  0.6218544060628659  0.2274229039455449   T   T   T
  0.2768882937411377  0.6275455241215084  0.3279857376261077   T   T   T
  0.7485523809948020  0.4064554327080288  0.3378926243810341   T   T   T
  0.2798713197992484  0.6281984197247894  0.7226040245696694   T   T   T
  0.7534736662242878  0.4063819509938611  0.7337146371922287   T   T   T
  0.2930680685729214  0.4127001221386237  0.8326890371572659   T   T   T
  0.7381165518218964  0.6223083956212392  0.8418663872771077   T   T   T
  0.3275627467951026  0.1810907403887327  0.0242169143320652   T   T   T
  0.3370715047975636  0.4190467197991268  0.0264934961410574   T   T   T
  0.3130626134255365  0.8727778773868877  0.0286326883269794   T   T   T
  0.6996968789372175  0.8546084502218818  0.0308485703923793   T   T   T
  0.0366334235577810  0.7595984733217094  0.0286670647176450   T   T   T
  0.9954689362213429  0.2725576326306722  0.0328076517290654   T   T   T
  0.6899952841059900  0.6163498325792531  0.0349432914825130   T   T   T
  0.7174049208581579  0.1626931362362498  0.0353498937036818   T   T   T
  0.3513940907225290  0.7090477252080660  0.2156325637434406   T   T   T
  0.1380222766608341  0.4020094460271082  0.2349118802681573   T   T   T
  0.6705099022406174  0.3219120298338325  0.2367798838279001   T   T   T
  0.8879452297818702  0.6314154070811355  0.2399446708215152   T   T   T
  0.5155694019921953  0.1568803109670469  0.2614490641507814   T   T   T
  0.8918258269897592  0.4057183153811366  0.2695815124622314   T   T   T
  0.5104139306372559  0.8748955928968698  0.2680811695118379   T   T   T
  0.1301324274020885  0.6266174405704277  0.2777420970757163   T   T   T
  0.7173713029714435  0.0130787920245012  0.2847938332363853   T   T   T
  0.3089305896757963  0.0205715271427849  0.2760637271088413   T   T   T
  0.8763583393473979  0.8410647519459999  0.2895392972096360   T   T   T
  0.3585230519402742  0.3178174634407540  0.3022773316973613   T   T   T
  0.8708501280400398  0.2024312156062678  0.3037313126225101   T   T   T
  0.1564274826907877  0.8333410083306276  0.3057132100124562   T   T   T
  0.3338997809963189  0.5150838303913119  0.3097360922212005   T   T   T
  0.6908629186171495  0.5185083996998756  0.3180012882005130   T   T   T
  0.1514433742254297  0.1886949708727457  0.2900059758054567   T   T   T
  0.6679432674286190  0.7160483084626463  0.3126489015214986   T   T   T
  0.2857861301402522  0.6590106702713996  0.5251313049804409   T   T   T
  0.3382758165236979  0.1682156060504809  0.5306367706038841   T   T   T
  0.0261367217086530  0.2918861500579055  0.5263961968391300   T   T   T
  0.3409888502568492  0.8660773603451517  0.5321174704903981   T   T   T
  0.6870254462904555  0.1689674434352639  0.5314902320607544   T   T   T
  0.7463457502436768  0.3762813272574945  0.5357615748204410   T   T   T
  0.0030201339165217  0.7421694646564632  0.5345862548865625   T   T   T
  0.6922590978159917  0.8662990218534787  0.5368065262837902   T   T   T
  0.3389043022504268  0.5169752701856325  0.7442051706263442   T   T   T
  0.3646656267053032  0.3205924766811492  0.7464153330468335   T   T   T
  0.1537431156350735  0.1923132858183507  0.7691545554911272   T   T   T
  0.8741439679731613  0.2006871657911660  0.7555270744257570   T   T   T
  0.6664908886707437  0.7144806773003225  0.7560826939749532   T   T   T
  0.6947515032764926  0.5177742481643008  0.7542600135401329   T   T   T
  0.1565696499662508  0.8323177782678997  0.7584490659181711   T   T   T
  0.3098945480021058  0.0201202881607259  0.7789298335621169   T   T   T
  0.8766376636082427  0.8439172447022472  0.7720746109804324   T   T   T
  0.7219079238747312  0.0156511681877163  0.7858069388409277   T   T   T
  0.1355770850557292  0.6272815656249975  0.7859944539570165   T   T   T
  0.5125734993722446  0.8785003079952673  0.7987893726002540   T   T   T
  0.8994063376908485  0.4065102633307731  0.7865673475848567   T   T   T
  0.5195650021561988  0.1581692625892970  0.7960636873970799   T   T   T
  0.1424363686733798  0.4021484408471139  0.8188916125739851   T   T   T
  0.8891246813650824  0.6322323788139030  0.8270033944375257   T   T   T
  0.3560407255289562  0.7131732539760947  0.8259104019094252   T   T   T
  0.6781878719478271  0.3236771095596822  0.8431693633322297   T   T   T
  0.2255266391249791  0.7381862693660679  0.0114136142023327   T   T   T
  0.4705320600931344  0.7104595249026673  0.0206382636256635   T   T   T
  0.5613842262669380  0.3198894571494648  0.0379663466578606   T   T   T
  0.8077506618902106  0.2973475471128140  0.0570309893521568   T   T   T
  0.0114988264259566  0.5167650600038769  0.2536250414795163   T   T   T
  0.4206213111282295  0.3084756033691249  0.5213646622170884   T   T   T
  0.8475589945747402  0.2429441143996200  0.5348057115394340   T   T   T
  0.1516694202314213  0.1779556457371783  0.5300099265401670   T   T   T
  0.8762065057063566  0.8510283381200239  0.5265062767559812   T   T   T
  0.1810546540599205  0.7919738475182001  0.5270196257290962   T   T   T
  0.6067893290643767  0.7269896704939285  0.5329930678639911   T   T   T
  0.0170130857840647  0.5167751374307699  0.8057267264872436   T   T   T
 
  0.00000000E+00  0.00000000E+00  0.00000000E+00
  0.00000000E+00  0.00000000E+00  0.00000000E+00
  0.00000000E+00  0.00000000E+00  0.00000000E+00
  0.00000000E+00  0.00000000E+00  0.00000000E+00
  0.00000000E+00  0.00000000E+00  0.00000000E+00
  0.00000000E+00  0.00000000E+00  0.00000000E+00
  0.00000000E+00  0.00000000E+00  0.00000000E+00
  0.00000000E+00  0.00000000E+00  0.00000000E+00
  0.00000000E+00  0.00000000E+00  0.00000000E+00
  0.00000000E+00  0.00000000E+00  0.00000000E+00
  0.00000000E+00  0.00000000E+00  0.00000000E+00
  0.00000000E+00  0.00000000E+00  0.00000000E+00
  0.00000000E+00  0.00000000E+00  0.00000000E+00
  0.00000000E+00  0.00000000E+00  0.00000000E+00
  0.00000000E+00  0.00000000E+00  0.00000000E+00
  0.00000000E+00  0.00000000E+00  0.00000000E+00
  0.00000000E+00  0.00000000E+00  0.00000000E+00
  0.00000000E+00  0.00000000E+00  0.00000000E+00
  0.00000000E+00  0.00000000E+00  0.00000000E+00
  0.00000000E+00  0.00000000E+00  0.00000000E+00
  0.00000000E+00  0.00000000E+00  0.00000000E+00
  0.00000000E+00  0.00000000E+00  0.00000000E+00
  0.00000000E+00  0.00000000E+00  0.00000000E+00
  0.00000000E+00  0.00000000E+00  0.00000000E+00
  0.00000000E+00  0.00000000E+00  0.00000000E+00
  0.00000000E+00  0.00000000E+00  0.00000000E+00
  0.00000000E+00  0.00000000E+00  0.00000000E+00
  0.00000000E+00  0.00000000E+00  0.00000000E+00
  0.00000000E+00  0.00000000E+00  0.00000000E+00
  0.00000000E+00  0.00000000E+00  0.00000000E+00
  0.00000000E+00  0.00000000E+00  0.00000000E+00
  0.00000000E+00  0.00000000E+00  0.00000000E+00
  0.00000000E+00  0.00000000E+00  0.00000000E+00
  0.00000000E+00  0.00000000E+00  0.00000000E+00
  0.00000000E+00  0.00000000E+00  0.00000000E+00
  0.00000000E+00  0.00000000E+00  0.00000000E+00
  0.00000000E+00  0.00000000E+00  0.00000000E+00
  0.00000000E+00  0.00000000E+00  0.00000000E+00
  0.00000000E+00  0.00000000E+00  0.00000000E+00
  0.00000000E+00  0.00000000E+00  0.00000000E+00
  0.00000000E+00  0.00000000E+00  0.00000000E+00
  0.00000000E+00  0.00000000E+00  0.00000000E+00
  0.00000000E+00  0.00000000E+00  0.00000000E+00
  0.00000000E+00  0.00000000E+00  0.00000000E+00
  0.00000000E+00  0.00000000E+00  0.00000000E+00
  0.00000000E+00  0.00000000E+00  0.00000000E+00
  0.00000000E+00  0.00000000E+00  0.00000000E+00
  0.00000000E+00  0.00000000E+00  0.00000000E+00
  0.00000000E+00  0.00000000E+00  0.00000000E+00
  0.00000000E+00  0.00000000E+00  0.00000000E+00
  0.00000000E+00  0.00000000E+00  0.00000000E+00
  0.00000000E+00  0.00000000E+00  0.00000000E+00
  0.00000000E+00  0.00000000E+00  0.00000000E+00
  0.00000000E+00  0.00000000E+00  0.00000000E+00
  0.00000000E+00  0.00000000E+00  0.00000000E+00
  0.00000000E+00  0.00000000E+00  0.00000000E+00
  0.00000000E+00  0.00000000E+00  0.00000000E+00
  0.00000000E+00  0.00000000E+00  0.00000000E+00
  0.00000000E+00  0.00000000E+00  0.00000000E+00
  0.00000000E+00  0.00000000E+00  0.00000000E+00
  0.00000000E+00  0.00000000E+00  0.00000000E+00
  0.00000000E+00  0.00000000E+00  0.00000000E+00
  0.00000000E+00  0.00000000E+00  0.00000000E+00
  0.00000000E+00  0.00000000E+00  0.00000000E+00
  0.00000000E+00  0.00000000E+00  0.00000000E+00
  0.00000000E+00  0.00000000E+00  0.00000000E+00
  0.00000000E+00  0.00000000E+00  0.00000000E+00
  0.00000000E+00  0.00000000E+00  0.00000000E+00
  0.00000000E+00  0.00000000E+00  0.00000000E+00
  0.00000000E+00  0.00000000E+00  0.00000000E+00
  0.00000000E+00  0.00000000E+00  0.00000000E+00
  0.00000000E+00  0.00000000E+00  0.00000000E+00
  0.00000000E+00  0.00000000E+00  0.00000000E+00
  0.00000000E+00  0.00000000E+00  0.00000000E+00
  0.00000000E+00  0.00000000E+00  0.00000000E+00
  0.00000000E+00  0.00000000E+00  0.00000000E+00
  0.00000000E+00  0.00000000E+00  0.00000000E+00
  0.00000000E+00  0.00000000E+00  0.00000000E+00
  0.00000000E+00  0.00000000E+00  0.00000000E+00
  0.00000000E+00  0.00000000E+00  0.00000000E+00
  0.00000000E+00  0.00000000E+00  0.00000000E+00
  0.00000000E+00  0.00000000E+00  0.00000000E+00
  0.00000000E+00  0.00000000E+00  0.00000000E+00
  0.00000000E+00  0.00000000E+00  0.00000000E+00
