Primitive Cell                          
   1.00000000000000     
     7.0440967105862331   -0.0000917244216723   -0.0383314170271617
     0.0000122067088977    8.7477786531052928    0.0004803498988450
     1.1512932873182311    0.0005349232853472    8.7220344208325500
   P    Mg   O    Li
     8     4    28     8
Selective dynamics
Direct
  0.4021515496456303  0.8519513643492758  0.2400010578946592   T   T   T
  0.8947702750759063  0.3442360986271993  0.2481384500223740   T   T   T
  0.7249668798236684  0.8441425089841417  0.4187736362782246   T   T   T
  0.2174491125997093  0.3518925260529002  0.4269743581629015   T   T   T
  0.4020813558803766  0.0498550255185179  0.7399221258126190   T   T   T
  0.8947240443519107  0.5574287778623486  0.7482171918657698   T   T   T
  0.7249314005641381  0.0574747107008733  0.9187215604006198   T   T   T
  0.2176060213135713  0.5498134030254249  0.9268053333628856   T   T   T
  0.3099119614480657  0.2009642168415624  0.0834314937002389   T   T   T
  0.8098286696641495  0.7008585527903932  0.0834891989934405   T   T   T
  0.8097616264475676  0.2008273850437661  0.5834853757175651   T   T   T
  0.3097941477348485  0.7008330654985571  0.5834525076566806   T   T   T
  0.3254699515824910  0.4247814030721031  0.0009968241573901   T   T   T
  0.8202935269660117  0.9365030321940395  0.0076255263423519   T   T   T
  0.6147544710825841  0.1847407442564730  0.0101370008633666   T   T   T
  0.1025851774338520  0.6571322111106568  0.0412933675597813   T   T   T
  0.5172695512400551  0.7447290247306952  0.1254942229352309   T   T   T
  0.0051768486826660  0.2172279164860100  0.1565949442034835   T   T   T
  0.7993898643099087  0.4652625153167591  0.1593113828401798   T   T   T
  0.2944440614927544  0.9770570861354813  0.1658152431586899   T   T   T
  0.8684463534805644  0.7845672960563448  0.2852816186553042   T   T   T
  0.3475517356047035  0.2674376514416466  0.3026746372747837   T   T   T
  0.5633535282317794  0.9400187189372247  0.3331241292311020   T   T   T
  0.0562697947279176  0.4401244309390293  0.3339719058437396   T   T   T
  0.2722107123401543  0.7671490115503303  0.3640902111978619   T   T   T
  0.7515431229560932  0.2844674859627432  0.3816513076138008   T   T   T
  0.3252141664432742  0.4769190878984375  0.5012157754201922   T   T   T
  0.8202837016757627  0.9651588896341536  0.5076641707136460   T   T   T
  0.6146889354538700  0.7170236014789850  0.5102702153419685   T   T   T
  0.1025633232941203  0.2443330195268913  0.5413351762231429   T   T   T
  0.5172195082585134  0.1570777753842805  0.6253950525637677   T   T   T
  0.0049512689886342  0.6845761304917346  0.6567776675230590   T   T   T
  0.7994870295005967  0.4365002594784144  0.6591956601159836   T   T   T
  0.2943584661311434  0.9247917690072995  0.6657581345702326   T   T   T
  0.8683681498474485  0.1171262875403443  0.7852781208731301   T   T   T
  0.3475144354477706  0.6345113686212471  0.8026038504433188   T   T   T
  0.5633140699956769  0.9617134433552579  0.8330758695938130   T   T   T
  0.0562770074154457  0.4615377898724731  0.8338974883651034   T   T   T
  0.2722627473905845  0.1346749474821394  0.8640804213569737   T   T   T
  0.7513669677306112  0.6171067319528376  0.8817137051458275   T   T   T
  0.6154040945001356  0.4153140808865956  0.0075673791310251   T   T   T
  0.0041809468770140  0.9866724874010586  0.1593143904994108   T   T   T
  0.0923187427333616  0.6525572984735604  0.2704100058600858   T   T   T
  0.5275558969706395  0.1525663080782493  0.3961947775159160   T   T   T
  0.6153124655100370  0.4865203024489162  0.5076628629850646   T   T   T
  0.0041813759398863  0.9153007443376850  0.6592332406415480   T   T   T
  0.0922490186198530  0.2491056967432925  0.7704256508254019   T   T   T
  0.5275602288835373  0.7491031108066437  0.8962198894373472   T   T   T
 
  0.00000000E+00  0.00000000E+00  0.00000000E+00
  0.00000000E+00  0.00000000E+00  0.00000000E+00
  0.00000000E+00  0.00000000E+00  0.00000000E+00
  0.00000000E+00  0.00000000E+00  0.00000000E+00
  0.00000000E+00  0.00000000E+00  0.00000000E+00
  0.00000000E+00  0.00000000E+00  0.00000000E+00
  0.00000000E+00  0.00000000E+00  0.00000000E+00
  0.00000000E+00  0.00000000E+00  0.00000000E+00
  0.00000000E+00  0.00000000E+00  0.00000000E+00
  0.00000000E+00  0.00000000E+00  0.00000000E+00
  0.00000000E+00  0.00000000E+00  0.00000000E+00
  0.00000000E+00  0.00000000E+00  0.00000000E+00
  0.00000000E+00  0.00000000E+00  0.00000000E+00
  0.00000000E+00  0.00000000E+00  0.00000000E+00
  0.00000000E+00  0.00000000E+00  0.00000000E+00
  0.00000000E+00  0.00000000E+00  0.00000000E+00
  0.00000000E+00  0.00000000E+00  0.00000000E+00
  0.00000000E+00  0.00000000E+00  0.00000000E+00
  0.00000000E+00  0.00000000E+00  0.00000000E+00
  0.00000000E+00  0.00000000E+00  0.00000000E+00
  0.00000000E+00  0.00000000E+00  0.00000000E+00
  0.00000000E+00  0.00000000E+00  0.00000000E+00
  0.00000000E+00  0.00000000E+00  0.00000000E+00
  0.00000000E+00  0.00000000E+00  0.00000000E+00
  0.00000000E+00  0.00000000E+00  0.00000000E+00
  0.00000000E+00  0.00000000E+00  0.00000000E+00
  0.00000000E+00  0.00000000E+00  0.00000000E+00
  0.00000000E+00  0.00000000E+00  0.00000000E+00
  0.00000000E+00  0.00000000E+00  0.00000000E+00
  0.00000000E+00  0.00000000E+00  0.00000000E+00
  0.00000000E+00  0.00000000E+00  0.00000000E+00
  0.00000000E+00  0.00000000E+00  0.00000000E+00
  0.00000000E+00  0.00000000E+00  0.00000000E+00
  0.00000000E+00  0.00000000E+00  0.00000000E+00
  0.00000000E+00  0.00000000E+00  0.00000000E+00
  0.00000000E+00  0.00000000E+00  0.00000000E+00
  0.00000000E+00  0.00000000E+00  0.00000000E+00
  0.00000000E+00  0.00000000E+00  0.00000000E+00
  0.00000000E+00  0.00000000E+00  0.00000000E+00
  0.00000000E+00  0.00000000E+00  0.00000000E+00
  0.00000000E+00  0.00000000E+00  0.00000000E+00
  0.00000000E+00  0.00000000E+00  0.00000000E+00
  0.00000000E+00  0.00000000E+00  0.00000000E+00
  0.00000000E+00  0.00000000E+00  0.00000000E+00
  0.00000000E+00  0.00000000E+00  0.00000000E+00
  0.00000000E+00  0.00000000E+00  0.00000000E+00
  0.00000000E+00  0.00000000E+00  0.00000000E+00
  0.00000000E+00  0.00000000E+00  0.00000000E+00
