Primitive Cell                          
   1.00000000000000     
     7.6435650766749950   -0.0060349280336681   -0.0001996409910483
     0.2438967109041090   13.7813069522516418   -0.0000014376599431
    -0.0001645453734032    0.0000168904766449    7.6841819662068183
   Nb   Si   O    Li
     8     8    40     8
Selective dynamics
Direct
  0.4776789485313060  0.9721422120829146  0.0790078889362889   T   T   T
  0.9890841304132323  0.4571239824864293  0.1570112544843454   T   T   T
  0.4876031858680818  0.1898609658390171  0.3572129842168721   T   T   T
  0.9879415356843708  0.6899194811721898  0.3792019730642266   T   T   T
  0.4890837772986316  0.9571601528992133  0.5795983235154836   T   T   T
  0.9774444168978462  0.4722174939379471  0.6574249935610510   T   T   T
  0.5066218678721341  0.7400409246971549  0.8593942904776100   T   T   T
  0.0061837538564120  0.2400952384018993  0.8771860182664994   T   T   T
  0.1233417184619867  0.8280875866212227  0.0247484384959478   T   T   T
  0.3636448818699520  0.3461489936135820  0.0233675548055032   T   T   T
  0.8518954846449702  0.0920687905760005  0.1955598671318910   T   T   T
  0.6182371658617001  0.5943617110859591  0.2301970877912680   T   T   T
  0.1183346583260345  0.0944004996793808  0.5063433404936646   T   T   T
  0.3519344333820769  0.5918389155172648  0.5412456292135275   T   T   T
  0.8638732762518018  0.8463365799082680  0.7127569037785761   T   T   T
  0.6230886086462206  0.3280527564683595  0.7114123595765349   T   T   T
  0.9786969658437741  0.1228287434160720  0.0343735106620287   T   T   T
  0.5557103264167793  0.8365963177186515  0.0391710546921473   T   T   T
  0.9302511748006310  0.3302999666018493  0.0461455264991883   T   T   T
  0.5270083765468030  0.6190174493482417  0.0422057410537846   T   T   T
  0.2378254976641472  0.4423642345371164  0.0559838813306115   T   T   T
  0.7307666336070042  0.0047740632925866  0.1213934426794978   T   T   T
  0.2277447513625575  0.9215490694609656  0.1080759734572609   T   T   T
  0.9940460379169380  0.7989746714000674  0.1858053743461312   T   T   T
  0.0544920346857651  0.5954079596111725  0.1968981637143230   T   T   T
  0.4139592856269658  0.0949059942268988  0.1958128205683920   T   T   T
  0.7369181890301775  0.4943690628057809  0.2043917053364410   T   T   T
  0.4499439775106993  0.3140155565241116  0.2109586819769049   T   T   T
  0.7287124584773608  0.1815373105585536  0.2694538734710932   T   T   T
  0.7274049369655273  0.6867180952631244  0.3002043616652728   T   T   T
  0.9730498755314869  0.0535676421130447  0.3621664093520636   T   T   T
  0.5307922242067065  0.9109953196437672  0.3612800514240035   T   T   T
  0.0306323114290095  0.4110720283683378  0.3754409467538338   T   T   T
  0.4731863495939876  0.5535359256310315  0.3745879498730673   T   T   T
  0.2270778583058117  0.1867673222961486  0.4360496621769556   T   T   T
  0.2288379417422917  0.6813458772709140  0.4670841035580651   T   T   T
  0.9501314096963611  0.8142567742595048  0.5251198285700553   T   T   T
  0.2369310193508198  0.9943781344309954  0.5319189925809198   T   T   T
  0.9140145075618022  0.5949953506496399  0.5404764256824066   T   T   T
  0.5541939190739384  0.0955095410054412  0.5395453918494368   T   T   T
  0.4936370602779974  0.2991460201526408  0.5504194595082339   T   T   T
  0.7275976125556269  0.4215327927129024  0.6280993549925071   T   T   T
  0.2308625404757620  0.5046020066933252  0.6155267498844523   T   T   T
  0.7379839834721551  0.9425484341782848  0.6805989343780539   T   T   T
  0.0272518743499930  0.1190617181116806  0.6943588828497269   T   T   T
  0.4304847732255510  0.8303821594791714  0.6906987921932668   T   T   T
  0.0551778006468737  0.3366945136570152  0.6975667924837978   T   T   T
  0.4789835403477056  0.6227739014224696  0.7021853071464221   T   T   T
  0.7505409311360438  0.2392468210337952  0.7775768389033573   T   T   T
  0.7531022405312555  0.7555251544012833  0.7930702950581932   T   T   T
  0.4287326269805263  0.0097651931658760  0.8554962257012519   T   T   T
  0.0164192356422603  0.8774799062650231  0.8561008643562289   T   T   T
  0.5163299411617714  0.3773242461768263  0.8802344330112319   T   T   T
  0.9282795657594676  0.5098598829699625  0.8808879144903159   T   T   T
  0.2528277977330120  0.2554388507968071  0.9428961238347000   T   T   T
  0.2507250788659974  0.7393234038026648  0.9585366403074289   T   T   T
  0.2622065349941991  0.5974907179048117  0.0410124640164184   T   T   T
  0.7182628207167951  0.8254230735569195  0.2344834954815411   T   T   T
  0.0879824998526004  0.9111646325832297  0.3597643338808041   T   T   T
  0.5879523467734060  0.4110881889942917  0.3764222709514939   T   T   T
  0.2181399726704285  0.3254510964847839  0.5023753037615322   T   T   T
  0.7623833943977871  0.0973525500182362  0.6951207611563106   T   T   T
  0.1238784960395307  0.0203896114532895  0.8807121106636586   T   T   T
  0.6237369593442139  0.5202011905638670  0.8562377954859031   T   T   T
 
  0.00000000E+00  0.00000000E+00  0.00000000E+00
  0.00000000E+00  0.00000000E+00  0.00000000E+00
  0.00000000E+00  0.00000000E+00  0.00000000E+00
  0.00000000E+00  0.00000000E+00  0.00000000E+00
  0.00000000E+00  0.00000000E+00  0.00000000E+00
  0.00000000E+00  0.00000000E+00  0.00000000E+00
  0.00000000E+00  0.00000000E+00  0.00000000E+00
  0.00000000E+00  0.00000000E+00  0.00000000E+00
  0.00000000E+00  0.00000000E+00  0.00000000E+00
  0.00000000E+00  0.00000000E+00  0.00000000E+00
  0.00000000E+00  0.00000000E+00  0.00000000E+00
  0.00000000E+00  0.00000000E+00  0.00000000E+00
  0.00000000E+00  0.00000000E+00  0.00000000E+00
  0.00000000E+00  0.00000000E+00  0.00000000E+00
  0.00000000E+00  0.00000000E+00  0.00000000E+00
  0.00000000E+00  0.00000000E+00  0.00000000E+00
  0.00000000E+00  0.00000000E+00  0.00000000E+00
  0.00000000E+00  0.00000000E+00  0.00000000E+00
  0.00000000E+00  0.00000000E+00  0.00000000E+00
  0.00000000E+00  0.00000000E+00  0.00000000E+00
  0.00000000E+00  0.00000000E+00  0.00000000E+00
  0.00000000E+00  0.00000000E+00  0.00000000E+00
  0.00000000E+00  0.00000000E+00  0.00000000E+00
  0.00000000E+00  0.00000000E+00  0.00000000E+00
  0.00000000E+00  0.00000000E+00  0.00000000E+00
  0.00000000E+00  0.00000000E+00  0.00000000E+00
  0.00000000E+00  0.00000000E+00  0.00000000E+00
  0.00000000E+00  0.00000000E+00  0.00000000E+00
  0.00000000E+00  0.00000000E+00  0.00000000E+00
  0.00000000E+00  0.00000000E+00  0.00000000E+00
  0.00000000E+00  0.00000000E+00  0.00000000E+00
  0.00000000E+00  0.00000000E+00  0.00000000E+00
  0.00000000E+00  0.00000000E+00  0.00000000E+00
  0.00000000E+00  0.00000000E+00  0.00000000E+00
  0.00000000E+00  0.00000000E+00  0.00000000E+00
  0.00000000E+00  0.00000000E+00  0.00000000E+00
  0.00000000E+00  0.00000000E+00  0.00000000E+00
  0.00000000E+00  0.00000000E+00  0.00000000E+00
  0.00000000E+00  0.00000000E+00  0.00000000E+00
  0.00000000E+00  0.00000000E+00  0.00000000E+00
  0.00000000E+00  0.00000000E+00  0.00000000E+00
  0.00000000E+00  0.00000000E+00  0.00000000E+00
  0.00000000E+00  0.00000000E+00  0.00000000E+00
  0.00000000E+00  0.00000000E+00  0.00000000E+00
  0.00000000E+00  0.00000000E+00  0.00000000E+00
  0.00000000E+00  0.00000000E+00  0.00000000E+00
  0.00000000E+00  0.00000000E+00  0.00000000E+00
  0.00000000E+00  0.00000000E+00  0.00000000E+00
  0.00000000E+00  0.00000000E+00  0.00000000E+00
  0.00000000E+00  0.00000000E+00  0.00000000E+00
  0.00000000E+00  0.00000000E+00  0.00000000E+00
  0.00000000E+00  0.00000000E+00  0.00000000E+00
  0.00000000E+00  0.00000000E+00  0.00000000E+00
  0.00000000E+00  0.00000000E+00  0.00000000E+00
  0.00000000E+00  0.00000000E+00  0.00000000E+00
  0.00000000E+00  0.00000000E+00  0.00000000E+00
  0.00000000E+00  0.00000000E+00  0.00000000E+00
  0.00000000E+00  0.00000000E+00  0.00000000E+00
  0.00000000E+00  0.00000000E+00  0.00000000E+00
  0.00000000E+00  0.00000000E+00  0.00000000E+00
  0.00000000E+00  0.00000000E+00  0.00000000E+00
  0.00000000E+00  0.00000000E+00  0.00000000E+00
  0.00000000E+00  0.00000000E+00  0.00000000E+00
  0.00000000E+00  0.00000000E+00  0.00000000E+00
