Primitive Cell                          
   1.00000000000000     
     8.4121382036863466   -0.0004705222669042    0.0117053835207814
     0.0018148080781525    8.6562328707932163   -0.0076681243666478
    -0.0218226048104415    0.0147977137421946   15.2994029212909108
   Ta   P    O    Li
    12     8    52     4
Selective dynamics
Direct
  0.9882137127160320  0.9730204503306510  0.0144320554771724   T   T   T
  0.4880387119712992  0.4817551935425541  0.1248487750835778   T   T   T
  0.0926727703704415  0.6539783008117581  0.1807764867949544   T   T   T
  0.8747798456130766  0.2900977720027385  0.1816398459442112   T   T   T
  0.6016463499885774  0.7903826305037001  0.4575273382808547   T   T   T
  0.3834744766992344  0.1541813190081101  0.4583888183543294   T   T   T
  0.9883048088853812  0.9815935612586131  0.5144776845023245   T   T   T
  0.4882905914352378  0.4731127003262046  0.6248196912330002   T   T   T
  0.8835339105421198  0.3004793694229875  0.6808236248202775   T   T   T
  0.1013505144932907  0.6643131671980811  0.6818195705612524   T   T   T
  0.3748706141713853  0.1645357126969529  0.9575760898011083   T   T   T
  0.5927988617920334  0.8005269153466941  0.9583457438303071   T   T   T
  0.2340096140418453  0.3527593432137195  0.2796119809257149   T   T   T
  0.7503051659441837  0.5918182002407946  0.2823924228542865   T   T   T
  0.7258887784903791  0.0921007505914773  0.3569183194209771   T   T   T
  0.2424347726565230  0.8529732514064321  0.3595442108265914   T   T   T
  0.7422917602051555  0.6016071325139052  0.7797242933150343   T   T   T
  0.2260868746595506  0.3626767081103850  0.7823239309902590   T   T   T
  0.2504310608302944  0.8627034491816801  0.8568946057348299   T   T   T
  0.7341918554182598  0.1018176768128853  0.8596031918101943   T   T   T
  0.7948717832328356  0.8525817672091236  0.0079589805904305   T   T   T
  0.4913219604833259  0.9824139423119220  0.0025546080278147   T   T   T
  0.1901377005867602  0.1035554623440333  0.0137240277405013   T   T   T
  0.4337657703632303  0.3340356252560355  0.0333753196150468   T   T   T
  0.5645569282559748  0.6245109852876993  0.0354128972129715   T   T   T
  0.0646455639747785  0.8304415587007696  0.1039619522526394   T   T   T
  0.9334495843322443  0.1207223743544787  0.1058312518476114   T   T   T
  0.6902031924459848  0.3516630926000985  0.1254800765014750   T   T   T
  0.9915959282633793  0.4720042217644433  0.1365843890602534   T   T   T
  0.2947495781391964  0.6023378827951333  0.1312764738124841   T   T   T
  0.3804692399394085  0.3457874082328871  0.2181050460584260   T   T   T
  0.6025318477101749  0.5978224718843350  0.2210245389940724   T   T   T
  0.8823642191262380  0.6997630686050869  0.2476077435147985   T   T   T
  0.7807089075302400  0.1325766613421706  0.2635936109177734   T   T   T
  0.1063564266252754  0.2369735242261868  0.2470995617987271   T   T   T
  0.1874693674564227  0.8225062793108151  0.2640217595446401   T   T   T
  0.1645396122637663  0.5179519858739496  0.2844021980198050   T   T   T
  0.8173067325938916  0.4260898373841613  0.2860871067657982   T   T   T
  0.6589593755796912  0.9263171757373740  0.3531729787462154   T   T   T
  0.3118349713991435  0.0181674999038464  0.3547451894343183   T   T   T
  0.2888712323943849  0.3226066482053156  0.3751589390485037   T   T   T
  0.3700134463113045  0.7372157721181694  0.3921760130193945   T   T   T
  0.6957139587562295  0.6325937076160955  0.3756980758145545   T   T   T
  0.5936970164955468  0.2001276315982281  0.3914266949219893   T   T   T
  0.8733565133467920  0.0978769163413773  0.4184814000298545   T   T   T
  0.0959351638719355  0.8461146476400287  0.4210557271103497   T   T   T
  0.1815120824407543  0.1024160916218548  0.5079303926343428   T   T   T
  0.4848333674131382  0.9722593269837887  0.5026048151422984   T   T   T
  0.7862482246468758  0.8515577251377380  0.5138072331290999   T   T   T
  0.5426778319074543  0.6211221267404383  0.5334987552572059   T   T   T
  0.4118940834655831  0.3305297351106802  0.5352650624975439   T   T   T
  0.9119302604601884  0.1245447451301800  0.6038019989476382   T   T   T
  0.0425825652288410  0.8341922343246821  0.6061072476471026   T   T   T
  0.2860650041686768  0.6032291963282290  0.6256701685365869   T   T   T
  0.9845800112627714  0.4826159696353898  0.6366890183388847   T   T   T
  0.6815212067186280  0.3524129959553974  0.6313292249909566   T   T   T
  0.5958990622921121  0.6087070146686671  0.7182346319219590   T   T   T
  0.3736852011978513  0.3566568616839163  0.7208769880863812   T   T   T
  0.0939711045345888  0.2547654121178624  0.7476125681191164   T   T   T
  0.1952089404332682  0.8222777025846852  0.7637087266538671   T   T   T
  0.8698394614445846  0.7174205029623764  0.7472307633018360   T   T   T
  0.7889633658572208  0.1319146001480362  0.7639620309376625   T   T   T
  0.8118119448634857  0.4364327227987062  0.7845952809267445   T   T   T
  0.1589485356911382  0.5283713944840258  0.7861706897198673   T   T   T
  0.3175205419720513  0.0283846880163594  0.8531455382828170   T   T   T
  0.6648133302765089  0.9366381733084808  0.8548309368464331   T   T   T
  0.6874459431209772  0.6318726529187799  0.8753113118311333   T   T   T
  0.6066715175903852  0.2175990454694343  0.8922696408599151   T   T   T
  0.2808615483462020  0.3221955810896660  0.8756581275324393   T   T   T
  0.3827225130089857  0.7546950331672662  0.8914281216477917   T   T   T
  0.1030715433019580  0.8567340933468515  0.9185659987161188   T   T   T
  0.8807200946100266  0.1088120533802339  0.9210421479362694   T   T   T
  0.1387606648269255  0.0228125462885771  0.1975668984362784   T   T   T
  0.3380959541703064  0.5229233554514963  0.4414989210914655   T   T   T
  0.8379281599375688  0.9315215298510040  0.6976586115789800   T   T   T
  0.6389301375535297  0.4315115266481371  0.9418968992646271   T   T   T
 
  0.00000000E+00  0.00000000E+00  0.00000000E+00
  0.00000000E+00  0.00000000E+00  0.00000000E+00
  0.00000000E+00  0.00000000E+00  0.00000000E+00
  0.00000000E+00  0.00000000E+00  0.00000000E+00
  0.00000000E+00  0.00000000E+00  0.00000000E+00
  0.00000000E+00  0.00000000E+00  0.00000000E+00
  0.00000000E+00  0.00000000E+00  0.00000000E+00
  0.00000000E+00  0.00000000E+00  0.00000000E+00
  0.00000000E+00  0.00000000E+00  0.00000000E+00
  0.00000000E+00  0.00000000E+00  0.00000000E+00
  0.00000000E+00  0.00000000E+00  0.00000000E+00
  0.00000000E+00  0.00000000E+00  0.00000000E+00
  0.00000000E+00  0.00000000E+00  0.00000000E+00
  0.00000000E+00  0.00000000E+00  0.00000000E+00
  0.00000000E+00  0.00000000E+00  0.00000000E+00
  0.00000000E+00  0.00000000E+00  0.00000000E+00
  0.00000000E+00  0.00000000E+00  0.00000000E+00
  0.00000000E+00  0.00000000E+00  0.00000000E+00
  0.00000000E+00  0.00000000E+00  0.00000000E+00
  0.00000000E+00  0.00000000E+00  0.00000000E+00
  0.00000000E+00  0.00000000E+00  0.00000000E+00
  0.00000000E+00  0.00000000E+00  0.00000000E+00
  0.00000000E+00  0.00000000E+00  0.00000000E+00
  0.00000000E+00  0.00000000E+00  0.00000000E+00
  0.00000000E+00  0.00000000E+00  0.00000000E+00
  0.00000000E+00  0.00000000E+00  0.00000000E+00
  0.00000000E+00  0.00000000E+00  0.00000000E+00
  0.00000000E+00  0.00000000E+00  0.00000000E+00
  0.00000000E+00  0.00000000E+00  0.00000000E+00
  0.00000000E+00  0.00000000E+00  0.00000000E+00
  0.00000000E+00  0.00000000E+00  0.00000000E+00
  0.00000000E+00  0.00000000E+00  0.00000000E+00
  0.00000000E+00  0.00000000E+00  0.00000000E+00
  0.00000000E+00  0.00000000E+00  0.00000000E+00
  0.00000000E+00  0.00000000E+00  0.00000000E+00
  0.00000000E+00  0.00000000E+00  0.00000000E+00
  0.00000000E+00  0.00000000E+00  0.00000000E+00
  0.00000000E+00  0.00000000E+00  0.00000000E+00
  0.00000000E+00  0.00000000E+00  0.00000000E+00
  0.00000000E+00  0.00000000E+00  0.00000000E+00
  0.00000000E+00  0.00000000E+00  0.00000000E+00
  0.00000000E+00  0.00000000E+00  0.00000000E+00
  0.00000000E+00  0.00000000E+00  0.00000000E+00
  0.00000000E+00  0.00000000E+00  0.00000000E+00
  0.00000000E+00  0.00000000E+00  0.00000000E+00
  0.00000000E+00  0.00000000E+00  0.00000000E+00
  0.00000000E+00  0.00000000E+00  0.00000000E+00
  0.00000000E+00  0.00000000E+00  0.00000000E+00
  0.00000000E+00  0.00000000E+00  0.00000000E+00
  0.00000000E+00  0.00000000E+00  0.00000000E+00
  0.00000000E+00  0.00000000E+00  0.00000000E+00
  0.00000000E+00  0.00000000E+00  0.00000000E+00
  0.00000000E+00  0.00000000E+00  0.00000000E+00
  0.00000000E+00  0.00000000E+00  0.00000000E+00
  0.00000000E+00  0.00000000E+00  0.00000000E+00
  0.00000000E+00  0.00000000E+00  0.00000000E+00
  0.00000000E+00  0.00000000E+00  0.00000000E+00
  0.00000000E+00  0.00000000E+00  0.00000000E+00
  0.00000000E+00  0.00000000E+00  0.00000000E+00
  0.00000000E+00  0.00000000E+00  0.00000000E+00
  0.00000000E+00  0.00000000E+00  0.00000000E+00
  0.00000000E+00  0.00000000E+00  0.00000000E+00
  0.00000000E+00  0.00000000E+00  0.00000000E+00
  0.00000000E+00  0.00000000E+00  0.00000000E+00
  0.00000000E+00  0.00000000E+00  0.00000000E+00
  0.00000000E+00  0.00000000E+00  0.00000000E+00
  0.00000000E+00  0.00000000E+00  0.00000000E+00
  0.00000000E+00  0.00000000E+00  0.00000000E+00
  0.00000000E+00  0.00000000E+00  0.00000000E+00
  0.00000000E+00  0.00000000E+00  0.00000000E+00
  0.00000000E+00  0.00000000E+00  0.00000000E+00
  0.00000000E+00  0.00000000E+00  0.00000000E+00
  0.00000000E+00  0.00000000E+00  0.00000000E+00
  0.00000000E+00  0.00000000E+00  0.00000000E+00
  0.00000000E+00  0.00000000E+00  0.00000000E+00
  0.00000000E+00  0.00000000E+00  0.00000000E+00
