Primitive Cell                          
   1.00000000000000     
     5.1978781440370421   -0.0532989010102470    0.0196083977325894
    -2.3225371929100649    4.6518971995101968    0.0199452336756903
     1.8697868168410636    2.9949746163023381   24.5394925019483487
   Si   Nb   O    Li
     8     4    28     4
Selective dynamics
Direct
  0.7866163550518053  0.5431216697463128  0.0731371415096405   T   T   T
  0.6444706022378810  0.3723631926073949  0.1962915543359998   T   T   T
  0.2826206118865500  0.5969823807227570  0.3258294875389183   T   T   T
  0.9525394728400940  0.5614291127122755  0.4451443290029431   T   T   T
  0.5625682614307195  0.7653745199918731  0.5730524989256125   T   T   T
  0.3923836431950178  0.6239559485945563  0.6962664983908908   T   T   T
  0.6169782504484758  0.2616021082775646  0.8259099922520505   T   T   T
  0.5820091677251540  0.9324635612757390  0.9452440678316805   T   T   T
  0.1882226753348988  0.2394341065956098  0.0069279992034268   T   T   T
  0.9630197657638107  0.9814149278928426  0.2603659476709907   T   T   T
  0.2592224728502330  0.1675373700655811  0.5068279465807635   T   T   T
  0.0015004382825623  0.9423356015167812  0.7603711113604419   T   T   T
  0.9503958411798692  0.4233669139279925  0.0308521300381628   T   T   T
  0.4403693631096246  0.4150953871245235  0.0659473964434056   T   T   T
  0.9432164201137496  0.8982382414939138  0.0684807495482502   T   T   T
  0.8093933262202881  0.4029312857617739  0.1342729849361746   T   T   T
  0.2901846941085608  0.1969667421273797  0.1963984431515442   T   T   T
  0.7373098383727523  0.6977954535707624  0.2129427016154537   T   T   T
  0.7733031731004942  0.2105481768879045  0.2360178454751747   T   T   T
  0.1534656093129030  0.7557313290082490  0.2848016103163431   T   T   T
  0.1922141081365041  0.2676755883234421  0.3106447559141046   T   T   T
  0.6329349081280853  0.7934105539269112  0.3277514981550240   T   T   T
  0.0800292110386849  0.5169798366957039  0.3857004419591661   T   T   T
  0.0539479694352494  0.9066664451543289  0.4489886006838688   T   T   T
  0.5970111408619374  0.3978806040137073  0.4512660969198450   T   T   T
  0.0675529382865463  0.4048764186928366  0.4892632898136071   T   T   T
  0.4427612849993920  0.9291020203956322  0.5307229027318954   T   T   T
  0.4353529063225778  0.4194489223192122  0.5658129027879326   T   T   T
  0.9177246533832388  0.9225297319628751  0.5684006158600425   T   T   T
  0.4220417340831730  0.7877936971378503  0.6341664823060427   T   T   T
  0.2170502515213641  0.2697388488635397  0.6964284197378277   T   T   T
  0.7180493808087292  0.7170292758065386  0.7128734548118274   T   T   T
  0.2312986692122578  0.7532237977990874  0.7359967750550638   T   T   T
  0.7761102064484788  0.1326079323441292  0.7849143477942491   T   T   T
  0.2878605672601182  0.1716127750253520  0.8106559382579945   T   T   T
  0.8137332118039922  0.6120596528830546  0.8277134689073051   T   T   T
  0.5367410474964771  0.0591078147280086  0.8857509979181515   T   T   T
  0.9273847525983854  0.0344060961757791  0.9490432511897353   T   T   T
  0.4188947299871302  0.5770569358521840  0.9513995886508937   T   T   T
  0.4253071841977274  0.0474257258704611  0.9892983045475816   T   T   T
  0.0890511476737572  0.1832270221113319  0.1282518002296840   T   T   T
  0.9081442766928376  0.0451367890272181  0.3813750473496498   T   T   T
  0.2026897641760783  0.0684288064008172  0.6282006093007624   T   T   T
  0.0652813548868849  0.8873082431952071  0.8813860374049014   T   T   T
 
  0.00000000E+00  0.00000000E+00  0.00000000E+00
  0.00000000E+00  0.00000000E+00  0.00000000E+00
  0.00000000E+00  0.00000000E+00  0.00000000E+00
  0.00000000E+00  0.00000000E+00  0.00000000E+00
  0.00000000E+00  0.00000000E+00  0.00000000E+00
  0.00000000E+00  0.00000000E+00  0.00000000E+00
  0.00000000E+00  0.00000000E+00  0.00000000E+00
  0.00000000E+00  0.00000000E+00  0.00000000E+00
  0.00000000E+00  0.00000000E+00  0.00000000E+00
  0.00000000E+00  0.00000000E+00  0.00000000E+00
  0.00000000E+00  0.00000000E+00  0.00000000E+00
  0.00000000E+00  0.00000000E+00  0.00000000E+00
  0.00000000E+00  0.00000000E+00  0.00000000E+00
  0.00000000E+00  0.00000000E+00  0.00000000E+00
  0.00000000E+00  0.00000000E+00  0.00000000E+00
  0.00000000E+00  0.00000000E+00  0.00000000E+00
  0.00000000E+00  0.00000000E+00  0.00000000E+00
  0.00000000E+00  0.00000000E+00  0.00000000E+00
  0.00000000E+00  0.00000000E+00  0.00000000E+00
  0.00000000E+00  0.00000000E+00  0.00000000E+00
  0.00000000E+00  0.00000000E+00  0.00000000E+00
  0.00000000E+00  0.00000000E+00  0.00000000E+00
  0.00000000E+00  0.00000000E+00  0.00000000E+00
  0.00000000E+00  0.00000000E+00  0.00000000E+00
  0.00000000E+00  0.00000000E+00  0.00000000E+00
  0.00000000E+00  0.00000000E+00  0.00000000E+00
  0.00000000E+00  0.00000000E+00  0.00000000E+00
  0.00000000E+00  0.00000000E+00  0.00000000E+00
  0.00000000E+00  0.00000000E+00  0.00000000E+00
  0.00000000E+00  0.00000000E+00  0.00000000E+00
  0.00000000E+00  0.00000000E+00  0.00000000E+00
  0.00000000E+00  0.00000000E+00  0.00000000E+00
  0.00000000E+00  0.00000000E+00  0.00000000E+00
  0.00000000E+00  0.00000000E+00  0.00000000E+00
  0.00000000E+00  0.00000000E+00  0.00000000E+00
  0.00000000E+00  0.00000000E+00  0.00000000E+00
  0.00000000E+00  0.00000000E+00  0.00000000E+00
  0.00000000E+00  0.00000000E+00  0.00000000E+00
  0.00000000E+00  0.00000000E+00  0.00000000E+00
  0.00000000E+00  0.00000000E+00  0.00000000E+00
  0.00000000E+00  0.00000000E+00  0.00000000E+00
  0.00000000E+00  0.00000000E+00  0.00000000E+00
  0.00000000E+00  0.00000000E+00  0.00000000E+00
  0.00000000E+00  0.00000000E+00  0.00000000E+00
