Primitive Cell                          
   1.00000000000000     
     7.6229562035957104    0.0362313224590442   -0.0068610227472234
    -0.3696126599881059    7.6855125447406705   -0.0013405999505722
     0.0054946635042991    0.0119712920084787   20.2123969680820608
   Si   Ta   O    Li
    16     8    56     8
Selective dynamics
Direct
  0.8921459825412086  0.1046078930573415  0.0054848439225594   T   T   T
  0.2452315686632360  0.5368913373089583  0.0093412101168155   T   T   T
  0.2891638656222568  0.1542716391012178  0.0288489867459774   T   T   T
  0.8334417558168852  0.4841237266747385  0.0310773621913398   T   T   T
  0.8066886452738515  0.1464438410694626  0.2519536210788118   T   T   T
  0.3603979282759724  0.4838454336497122  0.2536118002681533   T   T   T
  0.7544864253739618  0.5358611693378137  0.2735428061415845   T   T   T
  0.4006537699508499  0.0930919404444239  0.2735761651409803   T   T   T
  0.7503082058553190  0.0253189885252567  0.5063681926415171   T   T   T
  0.3954028583383433  0.5963663576772262  0.5091344728374096   T   T   T
  0.8045658812758276  0.6405789648241864  0.5285522182819591   T   T   T
  0.3559357838413320  0.9748983808844187  0.5299269416116488   T   T   T
  0.8303545152914111  0.9781736819268119  0.7495298483517843   T   T   T
  0.2843942477335233  0.6465488145763487  0.7546449960452435   T   T   T
  0.2401867619514491  0.0394971514411537  0.7727415690163042   T   T   T
  0.8862383521157540  0.5946868485610466  0.7741182872717829   T   T   T
  0.8177638378581022  0.8203790840300442  0.1388669033998298   T   T   T
  0.3128405428472334  0.8205009627529805  0.1427401228363436   T   T   T
  0.0811646648922633  0.5758020195202889  0.3871188675323793   T   T   T
  0.0789939710846497  0.0791029405706283  0.3934243378453814   T   T   T
  0.3077324131585044  0.3246143760844049  0.6372879550174844   T   T   T
  0.8103124433114317  0.3129849115046781  0.6408379408252216   T   T   T
  0.5660204755375773  0.0624004379458967  0.8892682614929299   T   T   T
  0.5636541126847447  0.5660541765740490  0.8917939364789831   T   T   T
  0.0321415695334082  0.5493586595136009  0.0085605061638887   T   T   T
  0.8418264379414637  0.9316261549366658  0.0488619197396218   T   T   T
  0.3458297285493188  0.6946517335965225  0.0503581780428135   T   T   T
  0.8336970724565163  0.2756538184531721  0.0470068470305662   T   T   T
  0.3096760211591985  0.3615762700820113  0.0509771751058921   T   T   T
  0.7579186632023323  0.5830412677487331  0.0957741897920599   T   T   T
  0.2887136351711064  0.0389217894906722  0.0950102461253906   T   T   T
  0.5687560739348285  0.8543038798536173  0.1331059926108722   T   T   T
  0.0674094875998463  0.7689002224903092  0.1387412354992534   T   T   T
  0.3554984696115469  0.5837538187004441  0.1822422751796111   T   T   T
  0.8613847698695025  0.0393624654863132  0.1858414350851092   T   T   T
  0.8156822092349998  0.7040250939433719  0.2286335209178461   T   T   T
  0.3038849187336155  0.9322792491414447  0.2305355111542795   T   T   T
  0.7962867476512443  0.3535007702807889  0.2352763193790182   T   T   T
  0.3574168113516407  0.2752587269891791  0.2368303759820733   T   T   T
  0.6131373916987499  0.0711618090124730  0.2776451275667924   T   T   T
  0.5452178882718144  0.5408683321557604  0.2904705539921935   T   T   T
  0.2020180441183044  0.5325914568939893  0.3027553578834130   T   T   T
  0.9584753743257792  0.1040809140612353  0.3064764723480380   T   T   T
  0.8569316777879905  0.5415105697096791  0.3437344536359532   T   T   T
  0.3222865720995429  0.0805071967008288  0.3482601796783555   T   T   T
  0.0893000304482570  0.8220693460745920  0.3677542980667781   T   T   T
  0.0961163958471758  0.3224152496821233  0.4140260126361355   T   T   T
  0.3180267234761445  0.6253261014498079  0.4348517648031134   T   T   T
  0.8549376275539728  0.0401686694513828  0.4366981409714583   T   T   T
  0.9536213908644129  0.5945573274365117  0.4740442950379702   T   T   T
  0.2038541368939448  0.0168691402508117  0.4766498783840021   T   T   T
  0.5398321410649487  0.0070337639448326  0.4866640362944281   T   T   T
  0.6072849785038485  0.5744451170568254  0.5041341539379900   T   T   T
  0.2962726496955383  0.4300606765141382  0.5475629989232687   T   T   T
  0.8034930071377389  0.8483307960698525  0.5455200573374483   T   T   T
  0.7977792477406709  0.1956149013581125  0.5516948809689950   T   T   T
  0.3531075719919414  0.7701851176426828  0.5530023627239018   T   T   T
  0.8583017205247501  0.5316844122864524  0.5944100051429189   T   T   T
  0.3566474685461571  0.0869686048510090  0.5975054763464982   T   T   T
  0.0620438580009477  0.2674176680713387  0.6395995044737717   T   T   T
  0.5630064234847580  0.3521064690385103  0.6450437035477634   T   T   T
  0.2908154652464745  0.5419488953522773  0.6849547566040357   T   T   T
  0.7525309598635843  0.0764318894094913  0.6849990520399629   T   T   T
  0.3389923094056542  0.1916538336826008  0.7275110385775676   T   T   T
  0.8376610539684677  0.7706674504455293  0.7332730993914680   T   T   T
  0.8243779315178870  0.4228050739176012  0.7315885215633955   T   T   T
  0.3046659470136177  0.8573540769163728  0.7374856774433738   T   T   T
  0.0263995535574679  0.0510835147487185  0.7726186313907206   T   T   T
  0.0965387990879449  0.6015118171682019  0.7910409139941095   T   T   T
  0.4424783054677235  0.5860167662842599  0.8020110172308179   T   T   T
  0.6849500920828078  0.0109235942613708  0.8076563890823252   T   T   T
  0.7834728636705677  0.5914850485741354  0.8445005058894424   T   T   T
  0.3132267158919007  0.0531162571995694  0.8482152554145301   T   T   T
  0.5467514093631678  0.3094246022195790  0.8683191031953115   T   T   T
  0.5429679467093393  0.8102756124658441  0.9140075104199212   T   T   T
  0.7879519505315784  0.0937757227045140  0.9352669635142661   T   T   T
  0.3182226575346121  0.5108393490820831  0.9341688691014838   T   T   T
  0.6897151686056162  0.5199461267694900  0.9729106539265402   T   T   T
  0.4436176718288252  0.0991446348178471  0.9786221322330704   T   T   T
  0.1031537123790471  0.1325890289817622  0.9866943839335178   T   T   T
  0.5462228976980725  0.8550796300166894  0.0169709545757044   T   T   T
  0.4978879546796264  0.5004480503744944  0.1067551104891749   T   T   T
  0.0439255492804094  0.8560083928404367  0.2683548268556706   T   T   T
  0.3898292956166856  0.8661673810792081  0.3977480248687968   T   T   T
  0.0404093042363982  0.3604445200806339  0.5132870956312274   T   T   T
  0.4891078074695017  0.9994082459488354  0.6750862602327814   T   T   T
  0.5504419920858297  0.3541146356683456  0.7634964247912066   T   T   T
  0.2536646345474836  0.2763210818782369  0.8935738440347194   T   T   T
 
  0.00000000E+00  0.00000000E+00  0.00000000E+00
  0.00000000E+00  0.00000000E+00  0.00000000E+00
  0.00000000E+00  0.00000000E+00  0.00000000E+00
  0.00000000E+00  0.00000000E+00  0.00000000E+00
  0.00000000E+00  0.00000000E+00  0.00000000E+00
  0.00000000E+00  0.00000000E+00  0.00000000E+00
  0.00000000E+00  0.00000000E+00  0.00000000E+00
  0.00000000E+00  0.00000000E+00  0.00000000E+00
  0.00000000E+00  0.00000000E+00  0.00000000E+00
  0.00000000E+00  0.00000000E+00  0.00000000E+00
  0.00000000E+00  0.00000000E+00  0.00000000E+00
  0.00000000E+00  0.00000000E+00  0.00000000E+00
  0.00000000E+00  0.00000000E+00  0.00000000E+00
  0.00000000E+00  0.00000000E+00  0.00000000E+00
  0.00000000E+00  0.00000000E+00  0.00000000E+00
  0.00000000E+00  0.00000000E+00  0.00000000E+00
  0.00000000E+00  0.00000000E+00  0.00000000E+00
  0.00000000E+00  0.00000000E+00  0.00000000E+00
  0.00000000E+00  0.00000000E+00  0.00000000E+00
  0.00000000E+00  0.00000000E+00  0.00000000E+00
  0.00000000E+00  0.00000000E+00  0.00000000E+00
  0.00000000E+00  0.00000000E+00  0.00000000E+00
  0.00000000E+00  0.00000000E+00  0.00000000E+00
  0.00000000E+00  0.00000000E+00  0.00000000E+00
  0.00000000E+00  0.00000000E+00  0.00000000E+00
  0.00000000E+00  0.00000000E+00  0.00000000E+00
  0.00000000E+00  0.00000000E+00  0.00000000E+00
  0.00000000E+00  0.00000000E+00  0.00000000E+00
  0.00000000E+00  0.00000000E+00  0.00000000E+00
  0.00000000E+00  0.00000000E+00  0.00000000E+00
  0.00000000E+00  0.00000000E+00  0.00000000E+00
  0.00000000E+00  0.00000000E+00  0.00000000E+00
  0.00000000E+00  0.00000000E+00  0.00000000E+00
  0.00000000E+00  0.00000000E+00  0.00000000E+00
  0.00000000E+00  0.00000000E+00  0.00000000E+00
  0.00000000E+00  0.00000000E+00  0.00000000E+00
  0.00000000E+00  0.00000000E+00  0.00000000E+00
  0.00000000E+00  0.00000000E+00  0.00000000E+00
  0.00000000E+00  0.00000000E+00  0.00000000E+00
  0.00000000E+00  0.00000000E+00  0.00000000E+00
  0.00000000E+00  0.00000000E+00  0.00000000E+00
  0.00000000E+00  0.00000000E+00  0.00000000E+00
  0.00000000E+00  0.00000000E+00  0.00000000E+00
  0.00000000E+00  0.00000000E+00  0.00000000E+00
  0.00000000E+00  0.00000000E+00  0.00000000E+00
  0.00000000E+00  0.00000000E+00  0.00000000E+00
  0.00000000E+00  0.00000000E+00  0.00000000E+00
  0.00000000E+00  0.00000000E+00  0.00000000E+00
  0.00000000E+00  0.00000000E+00  0.00000000E+00
  0.00000000E+00  0.00000000E+00  0.00000000E+00
  0.00000000E+00  0.00000000E+00  0.00000000E+00
  0.00000000E+00  0.00000000E+00  0.00000000E+00
  0.00000000E+00  0.00000000E+00  0.00000000E+00
  0.00000000E+00  0.00000000E+00  0.00000000E+00
  0.00000000E+00  0.00000000E+00  0.00000000E+00
  0.00000000E+00  0.00000000E+00  0.00000000E+00
  0.00000000E+00  0.00000000E+00  0.00000000E+00
  0.00000000E+00  0.00000000E+00  0.00000000E+00
  0.00000000E+00  0.00000000E+00  0.00000000E+00
  0.00000000E+00  0.00000000E+00  0.00000000E+00
  0.00000000E+00  0.00000000E+00  0.00000000E+00
  0.00000000E+00  0.00000000E+00  0.00000000E+00
  0.00000000E+00  0.00000000E+00  0.00000000E+00
  0.00000000E+00  0.00000000E+00  0.00000000E+00
  0.00000000E+00  0.00000000E+00  0.00000000E+00
  0.00000000E+00  0.00000000E+00  0.00000000E+00
  0.00000000E+00  0.00000000E+00  0.00000000E+00
  0.00000000E+00  0.00000000E+00  0.00000000E+00
  0.00000000E+00  0.00000000E+00  0.00000000E+00
  0.00000000E+00  0.00000000E+00  0.00000000E+00
  0.00000000E+00  0.00000000E+00  0.00000000E+00
  0.00000000E+00  0.00000000E+00  0.00000000E+00
  0.00000000E+00  0.00000000E+00  0.00000000E+00
  0.00000000E+00  0.00000000E+00  0.00000000E+00
  0.00000000E+00  0.00000000E+00  0.00000000E+00
  0.00000000E+00  0.00000000E+00  0.00000000E+00
  0.00000000E+00  0.00000000E+00  0.00000000E+00
  0.00000000E+00  0.00000000E+00  0.00000000E+00
  0.00000000E+00  0.00000000E+00  0.00000000E+00
  0.00000000E+00  0.00000000E+00  0.00000000E+00
  0.00000000E+00  0.00000000E+00  0.00000000E+00
  0.00000000E+00  0.00000000E+00  0.00000000E+00
  0.00000000E+00  0.00000000E+00  0.00000000E+00
  0.00000000E+00  0.00000000E+00  0.00000000E+00
  0.00000000E+00  0.00000000E+00  0.00000000E+00
  0.00000000E+00  0.00000000E+00  0.00000000E+00
  0.00000000E+00  0.00000000E+00  0.00000000E+00
  0.00000000E+00  0.00000000E+00  0.00000000E+00
