Primitive Cell                          
   1.00000000000000     
     4.9393583254013027    0.0248252039359647    0.0008449297177741
    -2.6889803715307767    4.3779855958970577   -0.0243458740585683
     0.1778785540360374   -0.1334588545145099   23.9824611324814789
   P    Ga   O    Li
     8     4    28     4
Selective dynamics
Direct
  0.7530359175416805  0.4232339685649009  0.0741641455537945   T   T   T
  0.8817331360456748  0.4735907667469803  0.1983458084892575   T   T   T
  0.2473451450934903  0.1613748142223201  0.3270080482400672   T   T   T
  0.1048054891176307  0.0825685074912670  0.4514985747386930   T   T   T
  0.5067155749022305  0.7919296688741753  0.5737995054121257   T   T   T
  0.3760424868264849  0.7244979691235187  0.6980993714193957   T   T   T
  0.0131456927113547  0.0496015029616359  0.8268808797225944   T   T   T
  0.1554329631592211  0.1170424405053510  0.9516049614891600   T   T   T
  0.4539866893354727  0.7705138447901945  0.0133198478166037   T   T   T
  0.5658055250278551  0.8153372217576731  0.2654455110099505   T   T   T
  0.8061293314596014  0.4378326309035785  0.5130036378080050   T   T   T
  0.6929580345464643  0.3840066843220384  0.7652987047245219   T   T   T
  0.0046276572484274  0.5467569193440625  0.0297288143142111   T   T   T
  0.5431938929772286  0.5638208245118506  0.0750246142935183   T   T   T
  0.5440843314249619  0.0733394427256684  0.0752202917424114   T   T   T
  0.9508065442542915  0.5268166550460336  0.1318041621488248   T   T   T
  0.7980345775659501  0.1446153177599570  0.2069295313585471   T   T   T
  0.6222518758513189  0.5437055874906918  0.2115485580115717   T   T   T
  0.2045458818404313  0.7215080557747200  0.2195761536063543   T   T   T
  0.5273302334107939  0.1324330377622616  0.3078669837109942   T   T   T
  0.2768293288013624  0.4665776786615439  0.3148125174657821   T   T   T
  0.9182584212160378  0.8854854135290040  0.3147023747063358   T   T   T
  0.3043341516479785  0.1715088247939889  0.3938207872460708   T   T   T
  0.8983480577223730  0.2264680809629240  0.4495434915858425   T   T   T
  0.8938272326754273  0.7327698257142501  0.4505628719966737   T   T   T
  0.3558374778302138  0.2111853720473889  0.4958212244547653   T   T   T
  0.2557070764712677  0.6635555205455574  0.5293208962814830   T   T   T
  0.7179777368049898  0.1416929919170755  0.5742536686317692   T   T   T
  0.7142284799509113  0.6490508997353999  0.5753087459732455   T   T   T
  0.3081166878472672  0.7016943092233561  0.6314155023958534   T   T   T
  0.4590986168542770  0.4799051435862225  0.7079936952086570   T   T   T
  0.6344937711137462  0.0547504300919428  0.7105745060179487   T   T   T
  0.0521485167690727  0.6511647883053513  0.7187978556004140   T   T   T
  0.7338118544710923  0.7394344449399028  0.8085957515060045   T   T   T
  0.9823528086743707  0.3233010168919108  0.8136504007434127   T   T   T
  0.3424421393947839  0.1013017076679361  0.8149267572739873   T   T   T
  0.9565133837023083  0.0100806520121068  0.8939191827363473   T   T   T
  0.3626300954850095  0.4669407140419182  0.9501042819816661   T   T   T
  0.3659218383313600  0.9772046985725851  0.9505183236107158   T   T   T
  0.9038083947503637  0.9935497616296232  0.9958991514561504   T   T   T
  0.5019464449924556  0.8021338316683995  0.1427788374249062   T   T   T
  0.8415536821096339  0.4441491900035928  0.3844155564473937   T   T   T
  0.7575732840619551  0.4205165634566512  0.6426600838246657   T   T   T
  0.4276009139041861  0.7457857809704578  0.8853121151873395   T   T   T
 
  0.00000000E+00  0.00000000E+00  0.00000000E+00
  0.00000000E+00  0.00000000E+00  0.00000000E+00
  0.00000000E+00  0.00000000E+00  0.00000000E+00
  0.00000000E+00  0.00000000E+00  0.00000000E+00
  0.00000000E+00  0.00000000E+00  0.00000000E+00
  0.00000000E+00  0.00000000E+00  0.00000000E+00
  0.00000000E+00  0.00000000E+00  0.00000000E+00
  0.00000000E+00  0.00000000E+00  0.00000000E+00
  0.00000000E+00  0.00000000E+00  0.00000000E+00
  0.00000000E+00  0.00000000E+00  0.00000000E+00
  0.00000000E+00  0.00000000E+00  0.00000000E+00
  0.00000000E+00  0.00000000E+00  0.00000000E+00
  0.00000000E+00  0.00000000E+00  0.00000000E+00
  0.00000000E+00  0.00000000E+00  0.00000000E+00
  0.00000000E+00  0.00000000E+00  0.00000000E+00
  0.00000000E+00  0.00000000E+00  0.00000000E+00
  0.00000000E+00  0.00000000E+00  0.00000000E+00
  0.00000000E+00  0.00000000E+00  0.00000000E+00
  0.00000000E+00  0.00000000E+00  0.00000000E+00
  0.00000000E+00  0.00000000E+00  0.00000000E+00
  0.00000000E+00  0.00000000E+00  0.00000000E+00
  0.00000000E+00  0.00000000E+00  0.00000000E+00
  0.00000000E+00  0.00000000E+00  0.00000000E+00
  0.00000000E+00  0.00000000E+00  0.00000000E+00
  0.00000000E+00  0.00000000E+00  0.00000000E+00
  0.00000000E+00  0.00000000E+00  0.00000000E+00
  0.00000000E+00  0.00000000E+00  0.00000000E+00
  0.00000000E+00  0.00000000E+00  0.00000000E+00
  0.00000000E+00  0.00000000E+00  0.00000000E+00
  0.00000000E+00  0.00000000E+00  0.00000000E+00
  0.00000000E+00  0.00000000E+00  0.00000000E+00
  0.00000000E+00  0.00000000E+00  0.00000000E+00
  0.00000000E+00  0.00000000E+00  0.00000000E+00
  0.00000000E+00  0.00000000E+00  0.00000000E+00
  0.00000000E+00  0.00000000E+00  0.00000000E+00
  0.00000000E+00  0.00000000E+00  0.00000000E+00
  0.00000000E+00  0.00000000E+00  0.00000000E+00
  0.00000000E+00  0.00000000E+00  0.00000000E+00
  0.00000000E+00  0.00000000E+00  0.00000000E+00
  0.00000000E+00  0.00000000E+00  0.00000000E+00
  0.00000000E+00  0.00000000E+00  0.00000000E+00
  0.00000000E+00  0.00000000E+00  0.00000000E+00
  0.00000000E+00  0.00000000E+00  0.00000000E+00
  0.00000000E+00  0.00000000E+00  0.00000000E+00
