Primitive Cell                          
   1.00000000000000     
     5.3392656699900396   -0.0089865914728659   -0.0265619895349963
    -0.0018009317684825    5.3111029316808951   -0.0005097947842799
    -0.3686435933875309    0.2740428081239440   16.8684107802471921
   Si   Nb   O    Li
     6     4    24     4
Selective dynamics
Direct
  0.4585211359115320  0.5663235901384240  0.0584618908227199   T   T   T
  0.6780473652829855  0.8944113905548221  0.4299084329393423   T   T   T
  0.3298690820527881  0.3892437417354202  0.4298575328096632   T   T   T
  0.0172145363674545  0.1085195780024009  0.5612310335938417   T   T   T
  0.8000992450228281  0.4364310834993717  0.6902438480445312   T   T   T
  0.3019277420789166  0.7778488265692118  0.6914961001727278   T   T   T
  0.7274657425292830  0.8110624939440285  0.2235215338543100   T   T   T
  0.2364216771121619  0.3131544865344011  0.2258192597241333   T   T   T
  0.2796279482982911  0.8364483455082237  0.8899718006438633   T   T   T
  0.7363596109646906  0.3382594598511730  0.8890915174503320   T   T   T
  0.6722642748279384  0.4518739353571348  0.0014623008333459   T   T   T
  0.2416739858532182  0.7090864230713763  0.0053136308545092   T   T   T
  0.6172414246699418  0.7729165255305119  0.1136740264323137   T   T   T
  0.3366581384349843  0.3526215547352507  0.1175605113094420   T   T   T
  0.0434872579536147  0.6508908153173181  0.2189824461145449   T   T   T
  0.9168483691707792  0.1483061158185350  0.2178596258467422   T   T   T
  0.4166379967921543  0.0185793608652887  0.2590714234509051   T   T   T
  0.5514497821400397  0.5215869616139699  0.2623290785639156   T   T   T
  0.8382774102202362  0.8659374265242263  0.3507645594686579   T   T   T
  0.1507983182341874  0.3855196254447222  0.3504838399293604   T   T   T
  0.5587696107622193  0.1840347429516029  0.4226797371264581   T   T   T
  0.4540497083306718  0.6777140468260683  0.4373859566616929   T   T   T
  0.8647679282307408  0.8980047949577070  0.5084715993504574   T   T   T
  0.1656744819441229  0.3160638010088377  0.5069424531520141   T   T   T
  0.8098149323849242  0.2572561041250339  0.6122096239796377   T   T   T
  0.2287353476700602  0.9616032068826996  0.6158413803637188   T   T   T
  0.5732592667498508  0.6416104883399640  0.6774220565799780   T   T   T
  0.0857336645309701  0.5576829199325672  0.6987209669373442   T   T   T
  0.7817965774313436  0.2667524181066199  0.7706483977287277   T   T   T
  0.2984363595925998  0.9412865594895337  0.7722432396304271   T   T   T
  0.4285498070630709  0.4985974673887199  0.8539347047590766   T   T   T
  0.9551368225658550  0.6151904643144732  0.8800089390038508   T   T   T
  0.0607894578446491  0.1126393542649851  0.9028000067239930   T   T   T
  0.5875238079623699  0.9928793715715472  0.9223473597562943   T   T   T
  0.1868078493566259  0.7770259340365584  0.3229981863661706   T   T   T
  0.7894787000291217  0.2855794916898020  0.3242656224913745   T   T   T
  0.1804206495905376  0.2915639109710710  0.7943074202576739   T   T   T
  0.8681959782002409  0.7862595340473959  0.9912697893079283   T   T   T
 
  0.00000000E+00  0.00000000E+00  0.00000000E+00
  0.00000000E+00  0.00000000E+00  0.00000000E+00
  0.00000000E+00  0.00000000E+00  0.00000000E+00
  0.00000000E+00  0.00000000E+00  0.00000000E+00
  0.00000000E+00  0.00000000E+00  0.00000000E+00
  0.00000000E+00  0.00000000E+00  0.00000000E+00
  0.00000000E+00  0.00000000E+00  0.00000000E+00
  0.00000000E+00  0.00000000E+00  0.00000000E+00
  0.00000000E+00  0.00000000E+00  0.00000000E+00
  0.00000000E+00  0.00000000E+00  0.00000000E+00
  0.00000000E+00  0.00000000E+00  0.00000000E+00
  0.00000000E+00  0.00000000E+00  0.00000000E+00
  0.00000000E+00  0.00000000E+00  0.00000000E+00
  0.00000000E+00  0.00000000E+00  0.00000000E+00
  0.00000000E+00  0.00000000E+00  0.00000000E+00
  0.00000000E+00  0.00000000E+00  0.00000000E+00
  0.00000000E+00  0.00000000E+00  0.00000000E+00
  0.00000000E+00  0.00000000E+00  0.00000000E+00
  0.00000000E+00  0.00000000E+00  0.00000000E+00
  0.00000000E+00  0.00000000E+00  0.00000000E+00
  0.00000000E+00  0.00000000E+00  0.00000000E+00
  0.00000000E+00  0.00000000E+00  0.00000000E+00
  0.00000000E+00  0.00000000E+00  0.00000000E+00
  0.00000000E+00  0.00000000E+00  0.00000000E+00
  0.00000000E+00  0.00000000E+00  0.00000000E+00
  0.00000000E+00  0.00000000E+00  0.00000000E+00
  0.00000000E+00  0.00000000E+00  0.00000000E+00
  0.00000000E+00  0.00000000E+00  0.00000000E+00
  0.00000000E+00  0.00000000E+00  0.00000000E+00
  0.00000000E+00  0.00000000E+00  0.00000000E+00
  0.00000000E+00  0.00000000E+00  0.00000000E+00
  0.00000000E+00  0.00000000E+00  0.00000000E+00
  0.00000000E+00  0.00000000E+00  0.00000000E+00
  0.00000000E+00  0.00000000E+00  0.00000000E+00
  0.00000000E+00  0.00000000E+00  0.00000000E+00
  0.00000000E+00  0.00000000E+00  0.00000000E+00
  0.00000000E+00  0.00000000E+00  0.00000000E+00
  0.00000000E+00  0.00000000E+00  0.00000000E+00
