Primitive Cell                          
   1.00000000000000     
     6.2167170890765906    0.0050636920035985   -0.0013360435863486
    -0.0535608318501099   14.1487283255829990   -0.0095119787977437
    -0.1025767556545846    0.0294435306482443   14.0423786699905389
   Ta   Al   O    Li
    16     8    64    24
Selective dynamics
Direct
  0.2148695922064547  0.1021616221180608  0.0234694708261145   T   T   T
  0.9824757229955168  0.8469673899430603  0.0265931011756635   T   T   T
  0.7223904929395530  0.5998683183975686  0.0264680651204898   T   T   T
  0.4491900641309101  0.3535976428256618  0.0396261582788355   T   T   T
  0.7150128550260533  0.8599235387742468  0.2737124897999124   T   T   T
  0.4507065007250262  0.1038461032808797  0.2765097180290752   T   T   T
  0.9678994700475840  0.6089367074865422  0.2755162735376047   T   T   T
  0.2046652080416038  0.3482025004892506  0.2870559051060866   T   T   T
  0.7196988312077011  0.1058381737994480  0.5206053920788989   T   T   T
  0.4826075563244814  0.8511615161197454  0.5272096481389639   T   T   T
  0.2269368998160957  0.6037021507206219  0.5315384155108518   T   T   T
  0.9440318492049684  0.3479617495210618  0.5452290518879437   T   T   T
  0.2093995944191036  0.8601824840735333  0.7730985253041354   T   T   T
  0.9497635902197388  0.1074873827975864  0.7771120152058444   T   T   T
  0.4660120296709636  0.6078440478744156  0.7809302203844268   T   T   T
  0.6907564887590638  0.3524111641881049  0.7925545190206904   T   T   T
  0.8389793720753076  0.2240287310426581  0.1499331175223375   T   T   T
  0.3572621346781304  0.7249058302639710  0.1579858664618143   T   T   T
  0.5777179444086116  0.4756566760915391  0.4046592137450915   T   T   T
  0.0935572532639952  0.9773274455196486  0.4169508459288735   T   T   T
  0.3455562929174008  0.2216828969809086  0.6509686473246532   T   T   T
  0.8481458659136862  0.7234124946674854  0.6578825174786473   T   T   T
  0.0914587344834032  0.4762059882422491  0.9039515520250063   T   T   T
  0.5931099228744046  0.9749442517360549  0.9162875572165916   T   T   T
  0.9653153933502523  0.5089348564974401  0.0129500120549366   T   T   T
  0.9275281326167573  0.7059850796651403  0.0203505163070474   T   T   T
  0.4693293828376426  0.0129109079796308  0.0231285705804041   T   T   T
  0.4090259025223588  0.2121966207484931  0.0235365944616603   T   T   T
  0.9583360621595318  0.1863454714223707  0.0418267472390781   T   T   T
  0.0231614715154507  0.9852016313402459  0.0409637449598108   T   T   T
  0.5038588724385633  0.4928122843349811  0.0461546742017589   T   T   T
  0.4780068073081978  0.6874856260721387  0.0507399767593100   T   T   T
  0.7021067525504137  0.3299788264779622  0.1223443517600700   T   T   T
  0.2038313823957054  0.8257631287136746  0.1279015052875536   T   T   T
  0.2414761898305926  0.3591725308719660  0.1389978541910750   T   T   T
  0.7675577712119974  0.8630849849801265  0.1406384592390353   T   T   T
  0.2510403192328567  0.0913832783760000  0.1717818294461111   T   T   T
  0.7627666358640681  0.5890305952041643  0.1719857993727913   T   T   T
  0.2179893334038354  0.6180355173389742  0.1885894839156350   T   T   T
  0.7058525587332127  0.1202666701105386  0.1917046969005369   T   T   T
  0.9713051066197451  0.2553090058720500  0.2585426776148765   T   T   T
  0.4988183561253763  0.9585684506284338  0.2652446206403170   T   T   T
  0.4830579953018201  0.7604243706127463  0.2651491331292490   T   T   T
  0.0170356809489363  0.4593034596371766  0.2709248260581703   T   T   T
  0.4208701505865591  0.2389444046857037  0.2953333535856970   T   T   T
  0.4628042864292752  0.4321257869540318  0.2990763484068140   T   T   T
  0.9387212258290205  0.7433409289447255  0.2949349986113461   T   T   T
  0.9522234395289146  0.9416951641696798  0.3117567626593214   T   T   T
  0.2225694357847487  0.0810800490450774  0.3732029050674015   T   T   T
  0.7356309430680312  0.5768858461391844  0.3734843197013404   T   T   T
  0.6842434588476038  0.1024876830342905  0.3858475097160721   T   T   T
  0.1680459519933919  0.5973550076730874  0.3935994448618274   T   T   T
  0.6773928995222747  0.8324268400650681  0.4214745650038694   T   T   T
  0.1638539326315396  0.3449337978050480  0.4221395437284841   T   T   T
  0.7509578113450956  0.3818673403839909  0.4381987862738228   T   T   T
  0.2272209028190346  0.8687480526418625  0.4398737305089071   T   T   T
  0.4259444789919371  0.7080797517299828  0.5180579972268333   T   T   T
  0.4648301001775934  0.5104170082187309  0.5147319604294935   T   T   T
  0.9282066219687053  0.2115563569721175  0.5196017900632270   T   T   T
  0.9686270480164367  0.0123550626698616  0.5238102669496456   T   T   T
  0.5281193545053995  0.9868700530768848  0.5396621498004848   T   T   T
  0.4688688438851969  0.1842514711914305  0.5454999298778773   T   T   T
  0.0106246917831783  0.4908831762281451  0.5499322569935146   T   T   T
  0.9735155904808224  0.6873423642444223  0.5512214463723453   T   T   T
  0.7010505620455376  0.8264016670846246  0.6281955850916034   T   T   T
  0.2036662811351491  0.3284049070116026  0.6279783655835942   T   T   T
  0.2668924739809739  0.8647564098380798  0.6398549460079010   T   T   T
  0.7396060056673406  0.3567218970392716  0.6434455986982002   T   T   T
  0.7593390047356650  0.0952136469792748  0.6705540952811191   T   T   T
  0.2617657809424685  0.5910079872153062  0.6736901129227135   T   T   T
  0.7131008958428069  0.6157159216361165  0.6885871043296561   T   T   T
  0.2091267608102783  0.1197837585982811  0.6942552916576687   T   T   T
  0.4763932429630202  0.2546298246275711  0.7597882452538158   T   T   T
  0.9775513515511989  0.7611907775570970  0.7635269669967784   T   T   T
  0.9976672893930854  0.9595100754035855  0.7657333873748158   T   T   T
  0.5002497882090253  0.4566770669141533  0.7732840829487486   T   T   T
  0.4359358869974201  0.7428151240806571  0.7935176128526749   T   T   T
  0.9530599371932382  0.4360742685925345  0.8009410466461659   T   T   T
  0.9310724187761039  0.2422006228462692  0.7998936883357572   T   T   T
  0.4501182739957343  0.9404650812270603  0.8116327135999128   T   T   T
  0.7175315209240125  0.0798662134476515  0.8719435050078417   T   T   T
  0.2297674646948380  0.5819412759515288  0.8743340710747702   T   T   T
  0.1798551457471831  0.1020209804839993  0.8884685399316155   T   T   T
  0.6829819609711834  0.6067447877284167  0.8897313822526485   T   T   T
  0.1754399431075200  0.8331639859277189  0.9209382243327511   T   T   T
  0.6784728819157735  0.3318599882523685  0.9273345187805191   T   T   T
  0.2337651328480632  0.3715516620023109  0.9337655245985630   T   T   T
  0.7259077575333848  0.8666389397835914  0.9400568160918468   T   T   T
  0.2349130239514139  0.5877123346633937  0.0415258264840190   T   T   T
  0.7448866455227900  0.0110850274248975  0.1097852213475576   T   T   T
  0.9405542649936081  0.4300870256909306  0.1300397988085251   T   T   T
  0.3260898964697247  0.9501293894672997  0.1404577269827740   T   T   T
  0.4739895017566766  0.5218015733464512  0.1956681479979352   T   T   T
  0.9434103498376274  0.1110471346821029  0.2949011453021200   T   T   T
  0.2067780629855349  0.8376993883181001  0.2960063039760996   T   T   T
  0.6932363894367484  0.3171735855692290  0.3139952878239072   T   T   T
  0.5471342558221295  0.6928093156718944  0.3834693288715059   T   T   T
  0.0061786322952528  0.4738466045509639  0.4090973334401156   T   T   T
  0.9710510669250780  0.7779048455161686  0.4462869600762787   T   T   T
  0.2356397500561940  0.2019262476633941  0.4480084135913103   T   T   T
  0.7405202288909010  0.5810866959980174  0.5458421681638157   T   T   T
  0.2451255338059184  0.0147954781343600  0.6079907530419888   T   T   T
  0.4427549233619956  0.4266639272654089  0.6253147693911600   T   T   T
  0.8309185698835861  0.9517740670194428  0.6392541551263378   T   T   T
  0.9723483878539625  0.5232404198150959  0.6957135062771869   T   T   T
  0.1927364550100350  0.3369738427049711  0.7829010902483731   T   T   T
  0.7001325361391366  0.8391128368680825  0.7922192940352559   T   T   T
  0.4370944428338959  0.1093128977611784  0.7969659987895454   T   T   T
  0.0059563457280234  0.6855473472282085  0.8776931297086392   T   T   T
  0.0003863439340108  0.2807613762992105  0.9410120024418447   T   T   T
  0.4671860090971407  0.7754604544749100  0.9434062579819127   T   T   T
  0.6776891262827576  0.1835451161562460  0.9590171561158485   T   T   T
 
  0.00000000E+00  0.00000000E+00  0.00000000E+00
  0.00000000E+00  0.00000000E+00  0.00000000E+00
  0.00000000E+00  0.00000000E+00  0.00000000E+00
  0.00000000E+00  0.00000000E+00  0.00000000E+00
  0.00000000E+00  0.00000000E+00  0.00000000E+00
  0.00000000E+00  0.00000000E+00  0.00000000E+00
  0.00000000E+00  0.00000000E+00  0.00000000E+00
  0.00000000E+00  0.00000000E+00  0.00000000E+00
  0.00000000E+00  0.00000000E+00  0.00000000E+00
  0.00000000E+00  0.00000000E+00  0.00000000E+00
  0.00000000E+00  0.00000000E+00  0.00000000E+00
  0.00000000E+00  0.00000000E+00  0.00000000E+00
  0.00000000E+00  0.00000000E+00  0.00000000E+00
  0.00000000E+00  0.00000000E+00  0.00000000E+00
  0.00000000E+00  0.00000000E+00  0.00000000E+00
  0.00000000E+00  0.00000000E+00  0.00000000E+00
  0.00000000E+00  0.00000000E+00  0.00000000E+00
  0.00000000E+00  0.00000000E+00  0.00000000E+00
  0.00000000E+00  0.00000000E+00  0.00000000E+00
  0.00000000E+00  0.00000000E+00  0.00000000E+00
  0.00000000E+00  0.00000000E+00  0.00000000E+00
  0.00000000E+00  0.00000000E+00  0.00000000E+00
  0.00000000E+00  0.00000000E+00  0.00000000E+00
  0.00000000E+00  0.00000000E+00  0.00000000E+00
  0.00000000E+00  0.00000000E+00  0.00000000E+00
  0.00000000E+00  0.00000000E+00  0.00000000E+00
  0.00000000E+00  0.00000000E+00  0.00000000E+00
  0.00000000E+00  0.00000000E+00  0.00000000E+00
  0.00000000E+00  0.00000000E+00  0.00000000E+00
  0.00000000E+00  0.00000000E+00  0.00000000E+00
  0.00000000E+00  0.00000000E+00  0.00000000E+00
  0.00000000E+00  0.00000000E+00  0.00000000E+00
  0.00000000E+00  0.00000000E+00  0.00000000E+00
  0.00000000E+00  0.00000000E+00  0.00000000E+00
  0.00000000E+00  0.00000000E+00  0.00000000E+00
  0.00000000E+00  0.00000000E+00  0.00000000E+00
  0.00000000E+00  0.00000000E+00  0.00000000E+00
  0.00000000E+00  0.00000000E+00  0.00000000E+00
  0.00000000E+00  0.00000000E+00  0.00000000E+00
  0.00000000E+00  0.00000000E+00  0.00000000E+00
  0.00000000E+00  0.00000000E+00  0.00000000E+00
  0.00000000E+00  0.00000000E+00  0.00000000E+00
  0.00000000E+00  0.00000000E+00  0.00000000E+00
  0.00000000E+00  0.00000000E+00  0.00000000E+00
  0.00000000E+00  0.00000000E+00  0.00000000E+00
  0.00000000E+00  0.00000000E+00  0.00000000E+00
  0.00000000E+00  0.00000000E+00  0.00000000E+00
  0.00000000E+00  0.00000000E+00  0.00000000E+00
  0.00000000E+00  0.00000000E+00  0.00000000E+00
  0.00000000E+00  0.00000000E+00  0.00000000E+00
  0.00000000E+00  0.00000000E+00  0.00000000E+00
  0.00000000E+00  0.00000000E+00  0.00000000E+00
  0.00000000E+00  0.00000000E+00  0.00000000E+00
  0.00000000E+00  0.00000000E+00  0.00000000E+00
  0.00000000E+00  0.00000000E+00  0.00000000E+00
  0.00000000E+00  0.00000000E+00  0.00000000E+00
  0.00000000E+00  0.00000000E+00  0.00000000E+00
  0.00000000E+00  0.00000000E+00  0.00000000E+00
  0.00000000E+00  0.00000000E+00  0.00000000E+00
  0.00000000E+00  0.00000000E+00  0.00000000E+00
  0.00000000E+00  0.00000000E+00  0.00000000E+00
  0.00000000E+00  0.00000000E+00  0.00000000E+00
  0.00000000E+00  0.00000000E+00  0.00000000E+00
  0.00000000E+00  0.00000000E+00  0.00000000E+00
  0.00000000E+00  0.00000000E+00  0.00000000E+00
  0.00000000E+00  0.00000000E+00  0.00000000E+00
  0.00000000E+00  0.00000000E+00  0.00000000E+00
  0.00000000E+00  0.00000000E+00  0.00000000E+00
  0.00000000E+00  0.00000000E+00  0.00000000E+00
  0.00000000E+00  0.00000000E+00  0.00000000E+00
  0.00000000E+00  0.00000000E+00  0.00000000E+00
  0.00000000E+00  0.00000000E+00  0.00000000E+00
  0.00000000E+00  0.00000000E+00  0.00000000E+00
  0.00000000E+00  0.00000000E+00  0.00000000E+00
  0.00000000E+00  0.00000000E+00  0.00000000E+00
  0.00000000E+00  0.00000000E+00  0.00000000E+00
  0.00000000E+00  0.00000000E+00  0.00000000E+00
  0.00000000E+00  0.00000000E+00  0.00000000E+00
  0.00000000E+00  0.00000000E+00  0.00000000E+00
  0.00000000E+00  0.00000000E+00  0.00000000E+00
  0.00000000E+00  0.00000000E+00  0.00000000E+00
  0.00000000E+00  0.00000000E+00  0.00000000E+00
  0.00000000E+00  0.00000000E+00  0.00000000E+00
  0.00000000E+00  0.00000000E+00  0.00000000E+00
  0.00000000E+00  0.00000000E+00  0.00000000E+00
  0.00000000E+00  0.00000000E+00  0.00000000E+00
  0.00000000E+00  0.00000000E+00  0.00000000E+00
  0.00000000E+00  0.00000000E+00  0.00000000E+00
  0.00000000E+00  0.00000000E+00  0.00000000E+00
  0.00000000E+00  0.00000000E+00  0.00000000E+00
  0.00000000E+00  0.00000000E+00  0.00000000E+00
  0.00000000E+00  0.00000000E+00  0.00000000E+00
  0.00000000E+00  0.00000000E+00  0.00000000E+00
  0.00000000E+00  0.00000000E+00  0.00000000E+00
  0.00000000E+00  0.00000000E+00  0.00000000E+00
  0.00000000E+00  0.00000000E+00  0.00000000E+00
  0.00000000E+00  0.00000000E+00  0.00000000E+00
  0.00000000E+00  0.00000000E+00  0.00000000E+00
  0.00000000E+00  0.00000000E+00  0.00000000E+00
  0.00000000E+00  0.00000000E+00  0.00000000E+00
  0.00000000E+00  0.00000000E+00  0.00000000E+00
  0.00000000E+00  0.00000000E+00  0.00000000E+00
  0.00000000E+00  0.00000000E+00  0.00000000E+00
  0.00000000E+00  0.00000000E+00  0.00000000E+00
  0.00000000E+00  0.00000000E+00  0.00000000E+00
  0.00000000E+00  0.00000000E+00  0.00000000E+00
  0.00000000E+00  0.00000000E+00  0.00000000E+00
  0.00000000E+00  0.00000000E+00  0.00000000E+00
  0.00000000E+00  0.00000000E+00  0.00000000E+00
  0.00000000E+00  0.00000000E+00  0.00000000E+00
  0.00000000E+00  0.00000000E+00  0.00000000E+00
  0.00000000E+00  0.00000000E+00  0.00000000E+00
