Primitive Cell                          
   1.00000000000000     
     5.3714054525397392   -0.0360613182956030    0.0044699672429443
    -2.5016606974987186    4.5725251211975904   -0.0020027110784695
    -0.0336870702901466   -0.0059375726851181   24.7749048844796107
   Si   Ta   O    Li
     8     4    28     4
Selective dynamics
Direct
  0.7252882095481610  0.3884512719142208  0.0292683540247793   T   T   T
  0.7237410151407104  0.3878632000966391  0.1520739909638138   T   T   T
  0.0326644007864090  0.9992444982426676  0.2786705631335522   T   T   T
  0.0730665467930294  0.0194073318380958  0.4028520059258369   T   T   T
  0.3833204511177755  0.7180030979461236  0.5292850450861550   T   T   T
  0.3834877267561936  0.7182365277772860  0.6520959223779386   T   T   T
  0.0745302709701079  0.0202583785914285  0.7785197472091596   T   T   T
  0.0334379715619306  0.9997851322411577  0.9026818544365653   T   T   T
  0.3829140085956837  0.6970449526408586  0.2161581772861609   T   T   T
  0.7236495962492242  0.3675105971855217  0.4652817289229105   T   T   T
  0.7244872706620384  0.3681067117263694  0.7160624013574690   T   T   T
  0.3843181833456981  0.6976151936008179  0.9651937492092415   T   T   T
  0.0663878313116228  0.6026816914042357  0.0187834549555745   T   T   T
  0.5554752727935721  0.5786724092735298  0.0257761457595436   T   T   T
  0.6847736131276605  0.2513815380587019  0.0906681092145405   T   T   T
  0.5524074436268265  0.5767438427641878  0.1554450731816530   T   T   T
  0.0644998197448956  0.6032261448477954  0.1627924958768006   T   T   T
  0.5774052905148324  0.1031495145937313  0.1916100031089840   T   T   T
  0.1781123186474218  0.2899876610973919  0.2416453325133006   T   T   T
  0.6999248936868412  0.7811403836165738  0.2643604649492630   T   T   T
  0.1893320514787078  0.7970771157573893  0.2778001626431958   T   T   T
  0.0532394111258228  0.1318390613378995  0.3407570380179550   T   T   T
  0.9163942339736195  0.6604134388940963  0.4035734178998212   T   T   T
  0.4056045000078967  0.1334862692050223  0.4172531860710791   T   T   T
  0.9278682899195161  0.1647616859165026  0.4398521611341124   T   T   T
  0.5294846804517022  0.5793421929013576  0.4897975611986425   T   T   T
  0.0429142832687148  0.5940451688880088  0.5184849747575626   T   T   T
  0.5552676422798370  0.0784069929833180  0.5260973491362648   T   T   T
  0.4202155638101175  0.6189635412180365  0.5906922165083799   T   T   T
  0.5550662561103721  0.0785195257183418  0.6552946334177889   T   T   T
  0.0429452072266940  0.5937116222151246  0.6627811672454698   T   T   T
  0.5300800872051497  0.5798873548625281  0.6915659504354110   T   T   T
  0.9287825677970005  0.1650338791644899  0.7414496289204138   T   T   T
  0.4073352674136785  0.1351158684572340  0.7642013158524890   T   T   T
  0.9186066417279335  0.6612637908413674  0.7777304125753446   T   T   T
  0.0551765242941329  0.1328666781606458  0.8406152929282626   T   T   T
  0.1896884112100778  0.7974027559855514  0.9036785017011653   T   T   T
  0.7002344590250331  0.7823663373128227  0.9167653537649727   T   T   T
  0.1788271149326803  0.2904996516088474  0.9397682200305866   T   T   T
  0.5784969104688500  0.1038732188202545  0.9896961643494393   T   T   T
  0.3418185493715598  0.6401900187963889  0.0905949831985851   T   T   T
  0.0531562388213018  0.5155280143989671  0.3406557890897233   T   T   T
  0.7645383251471927  0.3512779533559822  0.5906947409240715   T   T   T
  0.0579647410477619  0.5179968614235051  0.8405364509780071   T   T   T
 
  0.00000000E+00  0.00000000E+00  0.00000000E+00
  0.00000000E+00  0.00000000E+00  0.00000000E+00
  0.00000000E+00  0.00000000E+00  0.00000000E+00
  0.00000000E+00  0.00000000E+00  0.00000000E+00
  0.00000000E+00  0.00000000E+00  0.00000000E+00
  0.00000000E+00  0.00000000E+00  0.00000000E+00
  0.00000000E+00  0.00000000E+00  0.00000000E+00
  0.00000000E+00  0.00000000E+00  0.00000000E+00
  0.00000000E+00  0.00000000E+00  0.00000000E+00
  0.00000000E+00  0.00000000E+00  0.00000000E+00
  0.00000000E+00  0.00000000E+00  0.00000000E+00
  0.00000000E+00  0.00000000E+00  0.00000000E+00
  0.00000000E+00  0.00000000E+00  0.00000000E+00
  0.00000000E+00  0.00000000E+00  0.00000000E+00
  0.00000000E+00  0.00000000E+00  0.00000000E+00
  0.00000000E+00  0.00000000E+00  0.00000000E+00
  0.00000000E+00  0.00000000E+00  0.00000000E+00
  0.00000000E+00  0.00000000E+00  0.00000000E+00
  0.00000000E+00  0.00000000E+00  0.00000000E+00
  0.00000000E+00  0.00000000E+00  0.00000000E+00
  0.00000000E+00  0.00000000E+00  0.00000000E+00
  0.00000000E+00  0.00000000E+00  0.00000000E+00
  0.00000000E+00  0.00000000E+00  0.00000000E+00
  0.00000000E+00  0.00000000E+00  0.00000000E+00
  0.00000000E+00  0.00000000E+00  0.00000000E+00
  0.00000000E+00  0.00000000E+00  0.00000000E+00
  0.00000000E+00  0.00000000E+00  0.00000000E+00
  0.00000000E+00  0.00000000E+00  0.00000000E+00
  0.00000000E+00  0.00000000E+00  0.00000000E+00
  0.00000000E+00  0.00000000E+00  0.00000000E+00
  0.00000000E+00  0.00000000E+00  0.00000000E+00
  0.00000000E+00  0.00000000E+00  0.00000000E+00
  0.00000000E+00  0.00000000E+00  0.00000000E+00
  0.00000000E+00  0.00000000E+00  0.00000000E+00
  0.00000000E+00  0.00000000E+00  0.00000000E+00
  0.00000000E+00  0.00000000E+00  0.00000000E+00
  0.00000000E+00  0.00000000E+00  0.00000000E+00
  0.00000000E+00  0.00000000E+00  0.00000000E+00
  0.00000000E+00  0.00000000E+00  0.00000000E+00
  0.00000000E+00  0.00000000E+00  0.00000000E+00
  0.00000000E+00  0.00000000E+00  0.00000000E+00
  0.00000000E+00  0.00000000E+00  0.00000000E+00
  0.00000000E+00  0.00000000E+00  0.00000000E+00
  0.00000000E+00  0.00000000E+00  0.00000000E+00
