Primitive Cell                          
   1.00000000000000     
     6.8163751310000498    0.0091394528060173   -0.0178185736309471
    -0.0942658468703738    5.2563790255051233   -0.0236446832860812
    -0.0151738913446967    0.1872364577848170   14.7406634141645849
   Ta   P    O    Li
     6     4    26     2
Selective dynamics
Direct
  0.3411125293786696  0.5690288183777454  0.0741976252297718   T   T   T
  0.8459709380984819  0.0608261451413341  0.3387725524033769   T   T   T
  0.1399648239904678  0.5724451230023391  0.4525086968587928   T   T   T
  0.8413109485936374  0.0692280935836393  0.5743199403318542   T   T   T
  0.3464148718333888  0.5606203102187592  0.8385997948205599   T   T   T
  0.6400976153589610  0.0722694034211173  0.9524818424472841   T   T   T
  0.0181612190831970  0.0902877275916651  0.1155554602194897   T   T   T
  0.5224365310179664  0.5353452906664629  0.2950775511439900   T   T   T
  0.5183892727287969  0.5905047798802556  0.6154363760833590   T   T   T
  0.0228257732786332  0.0351129053591066  0.7951135470280306   T   T   T
  0.8749275678482675  0.1306469762261955  0.0354608586035781   T   T   T
  0.5526121711560776  0.8047984772441694  0.0374402377220946   T   T   T
  0.4989630774731566  0.2811359869741921  0.0503313004033146   T   T   T
  0.1635051852376961  0.8786907056655693  0.0980960026515163   T   T   T
  0.1292800361545474  0.3436441956684817  0.1321970088889870   T   T   T
  0.8922007509976240  0.0213250585236366  0.2002189889692758   T   T   T
  0.4376419791488644  0.6392045693675499  0.2046589119153950   T   T   T
  0.6095854583999198  0.2684824548894156  0.2787869297472554   T   T   T
  0.6781284124289897  0.7307235838280448  0.3245228191942360   T   T   T
  0.9829258761757771  0.3647556104919829  0.3664392527721034   T   T   T
  0.3594627058629669  0.5022285302904024  0.3664310332957328   T   T   T
  0.0613275912521871  0.8590622934098562  0.3781234105665519   T   T   T
  0.7260916036524847  0.0659605362892322  0.4564388187729804   T   T   T
  0.3752379542832003  0.6304341163052740  0.5352865535757090   T   T   T
  0.0527378338357067  0.3051055824104196  0.5375682847277119   T   T   T
  0.9992686211717583  0.7814103644931905  0.5504647059813834   T   T   T
  0.6641739506548205  0.3793615896478997  0.5981565279960392   T   T   T
  0.6291901354053238  0.8440402951883144  0.6321776202902285   T   T   T
  0.3921585171979274  0.5212775827221279  0.7000569819498210   T   T   T
  0.9376453432050482  0.1390522392831386  0.7048643346218810   T   T   T
  0.1098230288146098  0.7682056435045723  0.7787467409176045   T   T   T
  0.1788865635857206  0.2303048061136792  0.8244026722365021   T   T   T
  0.4835938088099780  0.8643875233576779  0.8662361231929054   T   T   T
  0.8602397514323101  0.0021436437611655  0.8667134738850493   T   T   T
  0.5616840232098923  0.3588893556861379  0.8780890679409623   T   T   T
  0.2262602375283294  0.5659917652096453  0.9562320033496405   T   T   T
  0.5803339953084148  0.0306619841408846  0.1591014224570557   T   T   T
  0.0804816745121784  0.5311257660137017  0.6591384526389774   T   T   T
 
  0.00000000E+00  0.00000000E+00  0.00000000E+00
  0.00000000E+00  0.00000000E+00  0.00000000E+00
  0.00000000E+00  0.00000000E+00  0.00000000E+00
  0.00000000E+00  0.00000000E+00  0.00000000E+00
  0.00000000E+00  0.00000000E+00  0.00000000E+00
  0.00000000E+00  0.00000000E+00  0.00000000E+00
  0.00000000E+00  0.00000000E+00  0.00000000E+00
  0.00000000E+00  0.00000000E+00  0.00000000E+00
  0.00000000E+00  0.00000000E+00  0.00000000E+00
  0.00000000E+00  0.00000000E+00  0.00000000E+00
  0.00000000E+00  0.00000000E+00  0.00000000E+00
  0.00000000E+00  0.00000000E+00  0.00000000E+00
  0.00000000E+00  0.00000000E+00  0.00000000E+00
  0.00000000E+00  0.00000000E+00  0.00000000E+00
  0.00000000E+00  0.00000000E+00  0.00000000E+00
  0.00000000E+00  0.00000000E+00  0.00000000E+00
  0.00000000E+00  0.00000000E+00  0.00000000E+00
  0.00000000E+00  0.00000000E+00  0.00000000E+00
  0.00000000E+00  0.00000000E+00  0.00000000E+00
  0.00000000E+00  0.00000000E+00  0.00000000E+00
  0.00000000E+00  0.00000000E+00  0.00000000E+00
  0.00000000E+00  0.00000000E+00  0.00000000E+00
  0.00000000E+00  0.00000000E+00  0.00000000E+00
  0.00000000E+00  0.00000000E+00  0.00000000E+00
  0.00000000E+00  0.00000000E+00  0.00000000E+00
  0.00000000E+00  0.00000000E+00  0.00000000E+00
  0.00000000E+00  0.00000000E+00  0.00000000E+00
  0.00000000E+00  0.00000000E+00  0.00000000E+00
  0.00000000E+00  0.00000000E+00  0.00000000E+00
  0.00000000E+00  0.00000000E+00  0.00000000E+00
  0.00000000E+00  0.00000000E+00  0.00000000E+00
  0.00000000E+00  0.00000000E+00  0.00000000E+00
  0.00000000E+00  0.00000000E+00  0.00000000E+00
  0.00000000E+00  0.00000000E+00  0.00000000E+00
  0.00000000E+00  0.00000000E+00  0.00000000E+00
  0.00000000E+00  0.00000000E+00  0.00000000E+00
  0.00000000E+00  0.00000000E+00  0.00000000E+00
  0.00000000E+00  0.00000000E+00  0.00000000E+00
