Primitive Cell                          
   1.00000000000000     
     7.9269852264463179    0.0135576041774550   -0.0120794841773655
    -0.0444471964803755    9.6419745368419587   -0.0030930129193600
     0.0423925260282573    0.0041410041084127   14.6147185382889031
   Ta   P    O    Li
    12     8    52     4
Selective dynamics
Direct
  0.5341641911621053  0.4391151042863015  0.0221173853441456   T   T   T
  0.0322591374280208  0.9312461212930572  0.0211131791350141   T   T   T
  0.3817472261978594  0.1294215373717478  0.1609537200919959   T   T   T
  0.8737529525287044  0.6283723653197413  0.1635454244760908   T   T   T
  0.1116406668027139  0.6256629877155717  0.3848463304206859   T   T   T
  0.6139373303924600  0.1234892640795593  0.3875796710687496   T   T   T
  0.4621075778648205  0.4376657321474937  0.5259684277286070   T   T   T
  0.9623294127471311  0.9346998224674579  0.5258891222467597   T   T   T
  0.1422986520625500  0.2262276795402016  0.6732989093680928   T   T   T
  0.6418024274726690  0.7281507016262267  0.6716471378387041   T   T   T
  0.3504697446327256  0.7265928532069523  0.8718145103479813   T   T   T
  0.8398910598933256  0.2263377622922889  0.8706534493007752   T   T   T
  0.2195548632436726  0.4437027584585280  0.1803958434426391   T   T   T
  0.7224760259981053  0.9420962523377696  0.1879636268139890   T   T   T
  0.7699968577182830  0.4353605729374834  0.3544586706681443   T   T   T
  0.2636328027524613  0.9382098972475887  0.3543740924314065   T   T   T
  0.7996237959360926  0.4139973603909297  0.6684335827027539   T   T   T
  0.2926555365699528  0.9118174116163473  0.6777268878041411   T   T   T
  0.7042200059113384  0.9057828711791700  0.8678168828678423   T   T   T
  0.1869649299502640  0.4151707542877148  0.8762543995732628   T   T   T
  0.7186132759507373  0.5281833999822396  0.0795834578361863   T   T   T
  0.2089300154584066  0.0455322596635739  0.0775381039369663   T   T   T
  0.4964077465501262  0.2532808270870177  0.0849839732352464   T   T   T
  0.9923846749648959  0.7607029400836609  0.0882401575912937   T   T   T
  0.0568391672994366  0.4939902312161379  0.1333874553530379   T   T   T
  0.3758215873438218  0.4963303445533285  0.1294250437117483   T   T   T
  0.5519883240350154  0.9840746936382203  0.1450480349521399   T   T   T
  0.8733725726906059  0.0004157066306476  0.1336894083253171   T   T   T
  0.2007855318409213  0.2817753410683039  0.1730204374757420   T   T   T
  0.7139649280264848  0.7821983689472702  0.1912210281442839   T   T   T
  0.7622464425028639  0.4863952808476881  0.2552878652347559   T   T   T
  0.2372738029445713  0.9997944798274503  0.2576734977928581   T   T   T
  0.4825725451356959  0.1908569951147570  0.2752079243920136   T   T   T
  0.9953153887093720  0.6744698214615426  0.2736124384139629   T   T   T
  0.2323672672488755  0.4819256523392070  0.2822542728525619   T   T   T
  0.7426484559682791  0.0021051872548838  0.2854612918276089   T   T   T
  0.2737842484208173  0.7785157600267496  0.3521674221192157   T   T   T
  0.7817981700225829  0.2734836839551349  0.3546090693037485   T   T   T
  0.6086112932784644  0.4837347702279047  0.4043392641928989   T   T   T
  0.1106219608333561  0.9937461402732453  0.4095232263172548   T   T   T
  0.4327705632746870  0.9828908528448608  0.3980594853801662   T   T   T
  0.9307205173042519  0.4846657614754335  0.4048943876009048   T   T   T
  0.4914074061523337  0.2520014466437956  0.4581976180573193   T   T   T
  0.2789751115200332  0.5161479063903158  0.4571519667313027   T   T   T
  0.0053564764174041  0.7517918473689278  0.4633488227348508   T   T   T
  0.7758863485267469  0.0305968034304982  0.4651127687922383   T   T   T
  0.6860158009529513  0.3746853796861203  0.5877133609326108   T   T   T
  0.5267429622010837  0.6110822700729273  0.5834432902635740   T   T   T
  0.1715178566446269  0.8741692277070499  0.6000270238436443   T   T   T
  0.0345346533426749  0.1134393481909513  0.5845589300560547   T   T   T
  0.3264216259470487  0.3455215166121590  0.6145078198083525   T   T   T
  0.8075656974908796  0.8415185475022398  0.6024547506424085   T   T   T
  0.9844793304600330  0.3808780691846252  0.6465447207827921   T   T   T
  0.4751143251747223  0.8767359943700868  0.6489528309805905   T   T   T
  0.2972997626755856  0.0705079818241501  0.6967290887681585   T   T   T
  0.8000532202786985  0.5724686059764679  0.6865257636849904   T   T   T
  0.7286038922169880  0.3425508954249210  0.7556067643998432   T   T   T
  0.2432449605929037  0.8365112674030613  0.7660657533690198   T   T   T
  0.4918359594686308  0.6544962203323408  0.7700508557948780   T   T   T
  0.9944795125206269  0.1772367585704302  0.7718153856946941   T   T   T
  0.2577633308834635  0.3450647084952294  0.7893162919657541   T   T   T
  0.7532657381962125  0.8279577149325021  0.7809831028021463   T   T   T
  0.6976090728645090  0.0639414299691268  0.8471613346464437   T   T   T
  0.1859282827904920  0.5736914475783479  0.8592521997335041   T   T   T
  0.0007597454731325  0.3812784294992184  0.8973946909916961   T   T   T
  0.5237256084399036  0.8694462899700000  0.8989221877292835   T   T   T
  0.6655997813153718  0.3374099496095155  0.9341951981844403   T   T   T
  0.1900109598390429  0.8407070934449692  0.9451524487630181   T   T   T
  0.4654632655340265  0.6028832476883608  0.9553143052828830   T   T   T
  0.9570728093102474  0.1216311269017538  0.9626831853491140   T   T   T
  0.8285361142078642  0.8742819116112344  0.9450965647768541   T   T   T
  0.2895639982470826  0.3692479197409497  0.9605710025249081   T   T   T
  0.1218061200042371  0.2417987196731701  0.0313843601906285   T   T   T
  0.9903575424780797  0.0635322697657088  0.2783929015615669   T   T   T
  0.4121230843108137  0.3736001802467968  0.3368228193770761   T   T   T
  0.4823527367450851  0.4238214628507251  0.7572404284747094   T   T   T
 
  0.00000000E+00  0.00000000E+00  0.00000000E+00
  0.00000000E+00  0.00000000E+00  0.00000000E+00
  0.00000000E+00  0.00000000E+00  0.00000000E+00
  0.00000000E+00  0.00000000E+00  0.00000000E+00
  0.00000000E+00  0.00000000E+00  0.00000000E+00
  0.00000000E+00  0.00000000E+00  0.00000000E+00
  0.00000000E+00  0.00000000E+00  0.00000000E+00
  0.00000000E+00  0.00000000E+00  0.00000000E+00
  0.00000000E+00  0.00000000E+00  0.00000000E+00
  0.00000000E+00  0.00000000E+00  0.00000000E+00
  0.00000000E+00  0.00000000E+00  0.00000000E+00
  0.00000000E+00  0.00000000E+00  0.00000000E+00
  0.00000000E+00  0.00000000E+00  0.00000000E+00
  0.00000000E+00  0.00000000E+00  0.00000000E+00
  0.00000000E+00  0.00000000E+00  0.00000000E+00
  0.00000000E+00  0.00000000E+00  0.00000000E+00
  0.00000000E+00  0.00000000E+00  0.00000000E+00
  0.00000000E+00  0.00000000E+00  0.00000000E+00
  0.00000000E+00  0.00000000E+00  0.00000000E+00
  0.00000000E+00  0.00000000E+00  0.00000000E+00
  0.00000000E+00  0.00000000E+00  0.00000000E+00
  0.00000000E+00  0.00000000E+00  0.00000000E+00
  0.00000000E+00  0.00000000E+00  0.00000000E+00
  0.00000000E+00  0.00000000E+00  0.00000000E+00
  0.00000000E+00  0.00000000E+00  0.00000000E+00
  0.00000000E+00  0.00000000E+00  0.00000000E+00
  0.00000000E+00  0.00000000E+00  0.00000000E+00
  0.00000000E+00  0.00000000E+00  0.00000000E+00
  0.00000000E+00  0.00000000E+00  0.00000000E+00
  0.00000000E+00  0.00000000E+00  0.00000000E+00
  0.00000000E+00  0.00000000E+00  0.00000000E+00
  0.00000000E+00  0.00000000E+00  0.00000000E+00
  0.00000000E+00  0.00000000E+00  0.00000000E+00
  0.00000000E+00  0.00000000E+00  0.00000000E+00
  0.00000000E+00  0.00000000E+00  0.00000000E+00
  0.00000000E+00  0.00000000E+00  0.00000000E+00
  0.00000000E+00  0.00000000E+00  0.00000000E+00
  0.00000000E+00  0.00000000E+00  0.00000000E+00
  0.00000000E+00  0.00000000E+00  0.00000000E+00
  0.00000000E+00  0.00000000E+00  0.00000000E+00
  0.00000000E+00  0.00000000E+00  0.00000000E+00
  0.00000000E+00  0.00000000E+00  0.00000000E+00
  0.00000000E+00  0.00000000E+00  0.00000000E+00
  0.00000000E+00  0.00000000E+00  0.00000000E+00
  0.00000000E+00  0.00000000E+00  0.00000000E+00
  0.00000000E+00  0.00000000E+00  0.00000000E+00
  0.00000000E+00  0.00000000E+00  0.00000000E+00
  0.00000000E+00  0.00000000E+00  0.00000000E+00
  0.00000000E+00  0.00000000E+00  0.00000000E+00
  0.00000000E+00  0.00000000E+00  0.00000000E+00
  0.00000000E+00  0.00000000E+00  0.00000000E+00
  0.00000000E+00  0.00000000E+00  0.00000000E+00
  0.00000000E+00  0.00000000E+00  0.00000000E+00
  0.00000000E+00  0.00000000E+00  0.00000000E+00
  0.00000000E+00  0.00000000E+00  0.00000000E+00
  0.00000000E+00  0.00000000E+00  0.00000000E+00
  0.00000000E+00  0.00000000E+00  0.00000000E+00
  0.00000000E+00  0.00000000E+00  0.00000000E+00
  0.00000000E+00  0.00000000E+00  0.00000000E+00
  0.00000000E+00  0.00000000E+00  0.00000000E+00
  0.00000000E+00  0.00000000E+00  0.00000000E+00
  0.00000000E+00  0.00000000E+00  0.00000000E+00
  0.00000000E+00  0.00000000E+00  0.00000000E+00
  0.00000000E+00  0.00000000E+00  0.00000000E+00
  0.00000000E+00  0.00000000E+00  0.00000000E+00
  0.00000000E+00  0.00000000E+00  0.00000000E+00
  0.00000000E+00  0.00000000E+00  0.00000000E+00
  0.00000000E+00  0.00000000E+00  0.00000000E+00
  0.00000000E+00  0.00000000E+00  0.00000000E+00
  0.00000000E+00  0.00000000E+00  0.00000000E+00
  0.00000000E+00  0.00000000E+00  0.00000000E+00
  0.00000000E+00  0.00000000E+00  0.00000000E+00
  0.00000000E+00  0.00000000E+00  0.00000000E+00
  0.00000000E+00  0.00000000E+00  0.00000000E+00
  0.00000000E+00  0.00000000E+00  0.00000000E+00
  0.00000000E+00  0.00000000E+00  0.00000000E+00
