Primitive Cell                          
   1.00000000000000     
     7.2454524528088946    0.0007353685053249    0.0049478692776015
     0.0003639615199163    8.3706494520070134   -0.0000262954690987
     0.9076749181637581   -0.0000781585028974    7.8627655567784007
   Si   Ta   O    Li
     6     4    24     4
Selective dynamics
Direct
  0.7619441141618637  0.4404953907464844  0.3896036362695341   T   T   T
  0.2347113272668579  0.9381171995050579  0.4011707210470661   T   T   T
  0.3968196976017637  0.4379910516992638  0.5600088778956973   T   T   T
  0.8692044788497952  0.9405634611924754  0.5712649594627948   T   T   T
  0.0776708699214126  0.7711517644767341  0.9681367568739887   T   T   T
  0.5538605576068534  0.2710060093026101  0.9926803315941797   T   T   T
  0.9171381981084181  0.1022744874996491  0.1811633090034306   T   T   T
  0.4291796735260789  0.6195843988516074  0.1884707816351252   T   T   T
  0.2019626374017491  0.1196451276306689  0.7723638388179879   T   T   T
  0.7144649102162504  0.6021067814306207  0.7799166835098390   T   T   T
  0.9279088930675456  0.8914022152464014  0.0789469229616273   T   T   T
  0.1814783723062376  0.6487738877984199  0.0897120258640030   T   T   T
  0.4036497993403216  0.3930210624592974  0.0989955383275856   T   T   T
  0.6620743625668695  0.1575883772896560  0.1216303244872279   T   T   T
  0.6661821148203870  0.5715277193077029  0.2724507678143411   T   T   T
  0.1523888917399887  0.0676308557789085  0.2765416089972987   T   T   T
  0.9168343648641937  0.3333268346292542  0.2777114416130360   T   T   T
  0.3917914737894179  0.8301661785150571  0.2912179031288247   T   T   T
  0.7882504109341255  0.0255520772678821  0.4084808540492446   T   T   T
  0.2968561742030360  0.5313883594214204  0.4138282131557247   T   T   T
  0.5768798347689028  0.3310739548923465  0.4714570249640317   T   T   T
  0.0543519077163594  0.8312578982988299  0.4894045668182727   T   T   T
  0.3348155420076253  0.0312013769632955  0.5474494774343555   T   T   T
  0.8430127853869323  0.5250751663357676  0.5526112166689856   T   T   T
  0.2395018799024626  0.3301531276423333  0.6697289511441866   T   T   T
  0.7145011465085958  0.8330869557473122  0.6828885605038550   T   T   T
  0.4790186396954539  0.5672363008303023  0.6849666712062401   T   T   T
  0.9650305199162261  0.0714259713035048  0.6885854139331187   T   T   T
  0.9694558249681577  0.6576417386203133  0.8392582745794428   T   T   T
  0.2278803655589030  0.8931476768659579  0.8618746028889532   T   T   T
  0.4499867555214152  0.1487812367283468  0.8710399651730398   T   T   T
  0.7038736631810352  0.3912507883777678  0.8820580017093391   T   T   T
  0.5691473324964988  0.6982236820053132  0.9794700804082339   T   T   T
  0.0622492809923827  0.1983228747779222  0.9815057282432065   T   T   T
  0.1210740576747327  0.4095711305425667  0.0933534788513768   T   T   T
  0.5488887581540425  0.1146823216916175  0.3933541969175423   T   T   T
  0.0823477035315605  0.6146556767248583  0.5671291795935929   T   T   T
  0.5103249481135421  0.9094529871704893  0.8671252823995772   T   T   T
 
  0.00000000E+00  0.00000000E+00  0.00000000E+00
  0.00000000E+00  0.00000000E+00  0.00000000E+00
  0.00000000E+00  0.00000000E+00  0.00000000E+00
  0.00000000E+00  0.00000000E+00  0.00000000E+00
  0.00000000E+00  0.00000000E+00  0.00000000E+00
  0.00000000E+00  0.00000000E+00  0.00000000E+00
  0.00000000E+00  0.00000000E+00  0.00000000E+00
  0.00000000E+00  0.00000000E+00  0.00000000E+00
  0.00000000E+00  0.00000000E+00  0.00000000E+00
  0.00000000E+00  0.00000000E+00  0.00000000E+00
  0.00000000E+00  0.00000000E+00  0.00000000E+00
  0.00000000E+00  0.00000000E+00  0.00000000E+00
  0.00000000E+00  0.00000000E+00  0.00000000E+00
  0.00000000E+00  0.00000000E+00  0.00000000E+00
  0.00000000E+00  0.00000000E+00  0.00000000E+00
  0.00000000E+00  0.00000000E+00  0.00000000E+00
  0.00000000E+00  0.00000000E+00  0.00000000E+00
  0.00000000E+00  0.00000000E+00  0.00000000E+00
  0.00000000E+00  0.00000000E+00  0.00000000E+00
  0.00000000E+00  0.00000000E+00  0.00000000E+00
  0.00000000E+00  0.00000000E+00  0.00000000E+00
  0.00000000E+00  0.00000000E+00  0.00000000E+00
  0.00000000E+00  0.00000000E+00  0.00000000E+00
  0.00000000E+00  0.00000000E+00  0.00000000E+00
  0.00000000E+00  0.00000000E+00  0.00000000E+00
  0.00000000E+00  0.00000000E+00  0.00000000E+00
  0.00000000E+00  0.00000000E+00  0.00000000E+00
  0.00000000E+00  0.00000000E+00  0.00000000E+00
  0.00000000E+00  0.00000000E+00  0.00000000E+00
  0.00000000E+00  0.00000000E+00  0.00000000E+00
  0.00000000E+00  0.00000000E+00  0.00000000E+00
  0.00000000E+00  0.00000000E+00  0.00000000E+00
  0.00000000E+00  0.00000000E+00  0.00000000E+00
  0.00000000E+00  0.00000000E+00  0.00000000E+00
  0.00000000E+00  0.00000000E+00  0.00000000E+00
  0.00000000E+00  0.00000000E+00  0.00000000E+00
  0.00000000E+00  0.00000000E+00  0.00000000E+00
  0.00000000E+00  0.00000000E+00  0.00000000E+00
