Primitive Cell                          
   1.00000000000000     
     7.2470991880260627    0.0002995292897128   -0.0349968682314924
     0.0002262655141570    7.9211703686365045   -0.0002180930536007
     3.4002796772657407    0.0000810634565677    8.6838860361251964
   P    Al   O    Li
     8     4    28     4
Selective dynamics
Direct
  0.6278002313472655  0.1509105201883187  0.1384875488732149   T   T   T
  0.2196636608734792  0.2205726653703977  0.1610675264926797   T   T   T
  0.8727985887634091  0.7206925041582863  0.2635559652781154   T   T   T
  0.4647385984182719  0.6511572673303760  0.2860417360397349   T   T   T
  0.6278726122736131  0.2879236649148780  0.6385286654091047   T   T   T
  0.2197000292550229  0.2185159182798202  0.6610803392913525   T   T   T
  0.8727860757476833  0.7182757917442188  0.7636186706939654   T   T   T
  0.4646769425220114  0.7879095456163441  0.7861083061448397   T   T   T
  0.5461678903297909  0.9695272636240873  0.4624675792728681   T   T   T
  0.0462338011942336  0.4695680112414422  0.4623407037353076   T   T   T
  0.5462490820251631  0.4695101424054542  0.9624275215357514   T   T   T
  0.0462251709703096  0.9695719927219741  0.9623362744448087   T   T   T
  0.7706272593022447  0.0251585744635676  0.0322228560448110   T   T   T
  0.2949319884402613  0.3724039384417424  0.0548413665438332   T   T   T
  0.6664725279960422  0.3301865560004913  0.0703219583594006   T   T   T
  0.9852990220604312  0.7733605510808204  0.0960556298083688   T   T   T
  0.4677641322984911  0.6423420895562870  0.1208831270097974   T   T   T
  0.0771184316731279  0.1055349474059781  0.1198292965446797   T   T   T
  0.4056023924895342  0.1031746884041951  0.1488117309490846   T   T   T
  0.6869622143645628  0.6033828111089079  0.2755507290442765   T   T   T
  0.0152668840538084  0.6052809769890146  0.3047017930397544   T   T   T
  0.6248867223779015  0.1419562115759234  0.3036031668958188   T   T   T
  0.1073857473636366  0.2731884719935920  0.3286304305047807   T   T   T
  0.4259763679326767  0.8302395804462464  0.3544263326852359   T   T   T
  0.7976546483204814  0.8723467187083429  0.3699269298268248   T   T   T
  0.3219639351940060  0.5251743720142628  0.3921282094097478   T   T   T
  0.7706683419977267  0.4137514515840195  0.5322560847687896   T   T   T
  0.2948073909227489  0.0665650570264731  0.5549649724317263   T   T   T
  0.6664583200761385  0.1087217407814691  0.5703135513087148   T   T   T
  0.9852094738737023  0.6656512355393218  0.5960817278493664   T   T   T
  0.4676459408385440  0.7966451469569691  0.6209553146025897   T   T   T
  0.0773033754833961  0.3338627511793106  0.6198708318981829   T   T   T
  0.4057482375142953  0.3357097495354040  0.6487900772012196   T   T   T
  0.6869360103259581  0.8355434687655006  0.7756255886688450   T   T   T
  0.0152443574414249  0.8336306982327741  0.8047360620629433   T   T   T
  0.6249507547747299  0.2968660657230231  0.8036288170425436   T   T   T
  0.1073575921251901  0.1659512859798227  0.8286416747077325   T   T   T
  0.4260213839241018  0.6087497813371741  0.8544484470320199   T   T   T
  0.7976890643257946  0.5665092546084480  0.8699019616880364   T   T   T
  0.3219771071507793  0.9138917257226353  0.8921499034045297   T   T   T
  0.2128758260001291  0.6246469340400012  0.0770165401018019   T   T   T
  0.8797725453358609  0.1245468178554816  0.3476998582667150   T   T   T
  0.2128478544483983  0.8142837829994534  0.5770079571347466   T   T   T
  0.8797263962806525  0.3143691237987198  0.8478047930503365   T   T   T
 
  0.00000000E+00  0.00000000E+00  0.00000000E+00
  0.00000000E+00  0.00000000E+00  0.00000000E+00
  0.00000000E+00  0.00000000E+00  0.00000000E+00
  0.00000000E+00  0.00000000E+00  0.00000000E+00
  0.00000000E+00  0.00000000E+00  0.00000000E+00
  0.00000000E+00  0.00000000E+00  0.00000000E+00
  0.00000000E+00  0.00000000E+00  0.00000000E+00
  0.00000000E+00  0.00000000E+00  0.00000000E+00
  0.00000000E+00  0.00000000E+00  0.00000000E+00
  0.00000000E+00  0.00000000E+00  0.00000000E+00
  0.00000000E+00  0.00000000E+00  0.00000000E+00
  0.00000000E+00  0.00000000E+00  0.00000000E+00
  0.00000000E+00  0.00000000E+00  0.00000000E+00
  0.00000000E+00  0.00000000E+00  0.00000000E+00
  0.00000000E+00  0.00000000E+00  0.00000000E+00
  0.00000000E+00  0.00000000E+00  0.00000000E+00
  0.00000000E+00  0.00000000E+00  0.00000000E+00
  0.00000000E+00  0.00000000E+00  0.00000000E+00
  0.00000000E+00  0.00000000E+00  0.00000000E+00
  0.00000000E+00  0.00000000E+00  0.00000000E+00
  0.00000000E+00  0.00000000E+00  0.00000000E+00
  0.00000000E+00  0.00000000E+00  0.00000000E+00
  0.00000000E+00  0.00000000E+00  0.00000000E+00
  0.00000000E+00  0.00000000E+00  0.00000000E+00
  0.00000000E+00  0.00000000E+00  0.00000000E+00
  0.00000000E+00  0.00000000E+00  0.00000000E+00
  0.00000000E+00  0.00000000E+00  0.00000000E+00
  0.00000000E+00  0.00000000E+00  0.00000000E+00
  0.00000000E+00  0.00000000E+00  0.00000000E+00
  0.00000000E+00  0.00000000E+00  0.00000000E+00
  0.00000000E+00  0.00000000E+00  0.00000000E+00
  0.00000000E+00  0.00000000E+00  0.00000000E+00
  0.00000000E+00  0.00000000E+00  0.00000000E+00
  0.00000000E+00  0.00000000E+00  0.00000000E+00
  0.00000000E+00  0.00000000E+00  0.00000000E+00
  0.00000000E+00  0.00000000E+00  0.00000000E+00
  0.00000000E+00  0.00000000E+00  0.00000000E+00
  0.00000000E+00  0.00000000E+00  0.00000000E+00
  0.00000000E+00  0.00000000E+00  0.00000000E+00
  0.00000000E+00  0.00000000E+00  0.00000000E+00
  0.00000000E+00  0.00000000E+00  0.00000000E+00
  0.00000000E+00  0.00000000E+00  0.00000000E+00
  0.00000000E+00  0.00000000E+00  0.00000000E+00
  0.00000000E+00  0.00000000E+00  0.00000000E+00
