Primitive Cell                          
   1.00000000000000     
     7.6320955588323489    0.0041931997881149    0.0004796727887420
    -0.1378691537566261    8.0297263853810836   -0.0020239941048831
     0.1265901939369871    0.2481186242616776   13.4490704430033361
   Hf   Si   O    Li
     8     8    40    16
Selective dynamics
Direct
  0.1551464379875469  0.6119355195405234  0.0510011248902558   T   T   T
  0.6394986516003982  0.1183630054186082  0.0681855542506966   T   T   T
  0.9059331352974027  0.6094330521617195  0.3023985319729547   T   T   T
  0.3847055633244452  0.0900545838936964  0.3145679293848644   T   T   T
  0.8922900156366254  0.3443402138057365  0.5554570551997884   T   T   T
  0.3880439994111526  0.8264280084251965  0.5702052532582016   T   T   T
  0.1440396896805822  0.3597200101398883  0.8022682727047297   T   T   T
  0.6449652374888473  0.8531991242749442  0.8192866708594906   T   T   T
  0.0434369280517544  0.2541128336656939  0.1700513837435622   T   T   T
  0.5307852853698236  0.7542353491314415  0.1792373889333518   T   T   T
  0.2689808477469100  0.4850793772978648  0.4360767358407358   T   T   T
  0.7636185340482626  0.9794764042192909  0.4405893802345489   T   T   T
  0.9825733829848602  0.6981341489739279  0.6689457171541520   T   T   T
  0.4845644071608461  0.1924518504190829  0.6742838236112547   T   T   T
  0.7728997631770085  0.4777789651113693  0.9325794796161304   T   T   T
  0.2745654773114197  0.9853835336998600  0.9402738802431543   T   T   T
  0.6366852416100741  0.3666808026982338  0.0043131742703864   T   T   T
  0.1386547165317822  0.8690615546761649  0.0095970554660312   T   T   T
  0.3939482123204385  0.1044747507018116  0.0101094378361779   T   T   T
  0.8883791250545983  0.5886922115458404  0.0106643189362998   T   T   T
  0.9123079462164299  0.1588028774872470  0.0919292141895269   T   T   T
  0.4018973807985589  0.6433120261067415  0.1082393814449958   T   T   T
  0.1899344746458596  0.3762181838050012  0.1147283285701945   T   T   T
  0.6632071443965657  0.8795454296514436  0.1169908161140540   T   T   T
  0.0296761788377040  0.6963914044115924  0.1791442894965627   T   T   T
  0.5434381130377730  0.2128455993343934  0.1947856108627732   T   T   T
  0.9142512072341589  0.3765490561218172  0.2332827069084260   T   T   T
  0.6500145892953668  0.6142032849922003  0.2376583694507275   T   T   T
  0.1489105156641273  0.1196992628707250  0.2395625836542195   T   T   T
  0.4033604533560506  0.8706829625344383  0.2459411812183205   T   T   T
  0.3712656344574299  0.3497231881952558  0.3645656737874390   T   T   T
  0.1405044321112499  0.6077227553956845  0.3739140703621047   T   T   T
  0.6390056582294648  0.1031972762826570  0.3767734277649950   T   T   T
  0.8608601889421905  0.8315257916180698  0.3792893274037681   T   T   T
  0.7963452152846955  0.4519985353108353  0.4251417834761355   T   T   T
  0.3021391321400486  0.9743904943620336  0.4401321805913483   T   T   T
  0.4157185265894014  0.6000711217751658  0.4951086895139412   T   T   T
  0.9060814226546796  0.0949382266981971  0.5026246489090411   T   T   T
  0.1476687223344655  0.3725823688211349  0.5149080357828097   T   T   T
  0.6450975923345155  0.8822680142576047  0.5275609263052488   T   T   T
  0.1168732058495578  0.7856222953644334  0.5859858887595237   T   T   T
  0.6190506788124992  0.2816283060649383  0.5909293899622270   T   T   T
  0.8354835461347534  0.5731688671221491  0.6191737520524612   T   T   T
  0.3322201134024709  0.0652964656588892  0.6332634125886401   T   T   T
  0.9871735049715937  0.2445676650057464  0.6913648890241930   T   T   T
  0.4845869425775646  0.7466692774776647  0.6999515132154528   T   T   T
  0.8859244063289466  0.8515082853653340  0.7274187964990588   T   T   T
  0.6196555651565774  0.0765289697944453  0.7391204655087549   T   T   T
  0.3951087186946438  0.3394714300884445  0.7399207355900188   T   T   T
  0.1033673669316428  0.5900452843471484  0.7446378743759396   T   T   T
  0.6789418239148901  0.6010246487012267  0.8516759229892301   T   T   T
  0.1615624958550868  0.1074910636643480  0.8641760825932820   T   T   T
  0.3981203355800318  0.8606624132379963  0.8783477646766187   T   T   T
  0.8999749220246827  0.3436542497526602  0.8783331595615920   T   T   T
  0.2340418837411988  0.4946385949266769  0.9207067619735696   T   T   T
  0.7480618709976312  0.9910247554598115  0.9293868668295531   T   T   T
  0.3771909930692061  0.3467769129987488  0.0009350785649502   T   T   T
  0.8643404887104964  0.8313424697900658  0.0339509827472568   T   T   T
  0.7474172180503444  0.4804755632936804  0.1251651485951868   T   T   T
  0.1607666586911591  0.9035651520042975  0.1745310668271358   T   T   T
  0.4039666957371324  0.4271309264985064  0.2090364059489858   T   T   T
  0.7193532212504294  0.2791118431056319  0.2943958885789257   T   T   T
  0.0982692257575337  0.8263237246370707  0.4366073516973898   T   T   T
  0.5733666236040307  0.3297483820954810  0.4525727483195681   T   T   T
  0.6879353027257835  0.6397224902135790  0.4972260406691191   T   T   T
  0.1782601031831703  0.1284477752728819  0.5221518862937984   T   T   T
  0.7847278735148322  0.0030126447321166  0.6308365086768504   T   T   T
  0.5890893029322655  0.5278979843607203  0.7093194829169889   T   T   T
  0.1073662876326793  0.0246449425392683  0.7216799205470821   T   T   T
  0.8070887748727458  0.1906526710049548  0.7919602267578725   T   T   T
  0.3120003383733376  0.6717000813829728  0.8121934145789353   T   T   T
  0.9564418960395997  0.1283356021269739  0.9519289877484596   T   T   T
 
  0.00000000E+00  0.00000000E+00  0.00000000E+00
  0.00000000E+00  0.00000000E+00  0.00000000E+00
  0.00000000E+00  0.00000000E+00  0.00000000E+00
  0.00000000E+00  0.00000000E+00  0.00000000E+00
  0.00000000E+00  0.00000000E+00  0.00000000E+00
  0.00000000E+00  0.00000000E+00  0.00000000E+00
  0.00000000E+00  0.00000000E+00  0.00000000E+00
  0.00000000E+00  0.00000000E+00  0.00000000E+00
  0.00000000E+00  0.00000000E+00  0.00000000E+00
  0.00000000E+00  0.00000000E+00  0.00000000E+00
  0.00000000E+00  0.00000000E+00  0.00000000E+00
  0.00000000E+00  0.00000000E+00  0.00000000E+00
  0.00000000E+00  0.00000000E+00  0.00000000E+00
  0.00000000E+00  0.00000000E+00  0.00000000E+00
  0.00000000E+00  0.00000000E+00  0.00000000E+00
  0.00000000E+00  0.00000000E+00  0.00000000E+00
  0.00000000E+00  0.00000000E+00  0.00000000E+00
  0.00000000E+00  0.00000000E+00  0.00000000E+00
  0.00000000E+00  0.00000000E+00  0.00000000E+00
  0.00000000E+00  0.00000000E+00  0.00000000E+00
  0.00000000E+00  0.00000000E+00  0.00000000E+00
  0.00000000E+00  0.00000000E+00  0.00000000E+00
  0.00000000E+00  0.00000000E+00  0.00000000E+00
  0.00000000E+00  0.00000000E+00  0.00000000E+00
  0.00000000E+00  0.00000000E+00  0.00000000E+00
  0.00000000E+00  0.00000000E+00  0.00000000E+00
  0.00000000E+00  0.00000000E+00  0.00000000E+00
  0.00000000E+00  0.00000000E+00  0.00000000E+00
  0.00000000E+00  0.00000000E+00  0.00000000E+00
  0.00000000E+00  0.00000000E+00  0.00000000E+00
  0.00000000E+00  0.00000000E+00  0.00000000E+00
  0.00000000E+00  0.00000000E+00  0.00000000E+00
  0.00000000E+00  0.00000000E+00  0.00000000E+00
  0.00000000E+00  0.00000000E+00  0.00000000E+00
  0.00000000E+00  0.00000000E+00  0.00000000E+00
  0.00000000E+00  0.00000000E+00  0.00000000E+00
  0.00000000E+00  0.00000000E+00  0.00000000E+00
  0.00000000E+00  0.00000000E+00  0.00000000E+00
  0.00000000E+00  0.00000000E+00  0.00000000E+00
  0.00000000E+00  0.00000000E+00  0.00000000E+00
  0.00000000E+00  0.00000000E+00  0.00000000E+00
  0.00000000E+00  0.00000000E+00  0.00000000E+00
  0.00000000E+00  0.00000000E+00  0.00000000E+00
  0.00000000E+00  0.00000000E+00  0.00000000E+00
  0.00000000E+00  0.00000000E+00  0.00000000E+00
  0.00000000E+00  0.00000000E+00  0.00000000E+00
  0.00000000E+00  0.00000000E+00  0.00000000E+00
  0.00000000E+00  0.00000000E+00  0.00000000E+00
  0.00000000E+00  0.00000000E+00  0.00000000E+00
  0.00000000E+00  0.00000000E+00  0.00000000E+00
  0.00000000E+00  0.00000000E+00  0.00000000E+00
  0.00000000E+00  0.00000000E+00  0.00000000E+00
  0.00000000E+00  0.00000000E+00  0.00000000E+00
  0.00000000E+00  0.00000000E+00  0.00000000E+00
  0.00000000E+00  0.00000000E+00  0.00000000E+00
  0.00000000E+00  0.00000000E+00  0.00000000E+00
  0.00000000E+00  0.00000000E+00  0.00000000E+00
  0.00000000E+00  0.00000000E+00  0.00000000E+00
  0.00000000E+00  0.00000000E+00  0.00000000E+00
  0.00000000E+00  0.00000000E+00  0.00000000E+00
  0.00000000E+00  0.00000000E+00  0.00000000E+00
  0.00000000E+00  0.00000000E+00  0.00000000E+00
  0.00000000E+00  0.00000000E+00  0.00000000E+00
  0.00000000E+00  0.00000000E+00  0.00000000E+00
  0.00000000E+00  0.00000000E+00  0.00000000E+00
  0.00000000E+00  0.00000000E+00  0.00000000E+00
  0.00000000E+00  0.00000000E+00  0.00000000E+00
  0.00000000E+00  0.00000000E+00  0.00000000E+00
  0.00000000E+00  0.00000000E+00  0.00000000E+00
  0.00000000E+00  0.00000000E+00  0.00000000E+00
  0.00000000E+00  0.00000000E+00  0.00000000E+00
  0.00000000E+00  0.00000000E+00  0.00000000E+00
