Primitive Cell                          
   1.00000000000000     
     5.4985233189757210    0.0073533619509072    0.0010499245492627
    -0.6924457267986396    5.4297672939104844   -0.0007944600567627
    -0.0039186251766253    0.0037144794103618   17.8328751239893926
   P    Mg   O    Li
     8     4    28     8
Selective dynamics
Direct
  0.4698401936351928  0.3793081524334383  0.1162735356167062   T   T   T
  0.8054995995796332  0.7310670487025490  0.1985897672273680   T   T   T
  0.3365298086627604  0.6641255308476985  0.3610718234057728   T   T   T
  0.6242971395785162  0.3817101347086975  0.4550819592311797   T   T   T
  0.7104998109580620  0.8555090103939307  0.6162900119876511   T   T   T
  0.3743183263866499  0.5037712031269592  0.6984302488503573   T   T   T
  0.8431250048811094  0.5706077808218595  0.8610815986592328   T   T   T
  0.5558256377237001  0.8526816452960659  0.9551044244668674   T   T   T
  0.0156384724754375  0.6210303145561511  0.0293206655520706   T   T   T
  0.5646797079138821  0.2052409691182646  0.2896099575708604   T   T   T
  0.1642212360639448  0.6136326789732607  0.5292304845397453   T   T   T
  0.6156119177567518  0.0296924185155945  0.7895962080611554   T   T   T
  0.3441519705507687  0.8140156955725928  0.0089884752410185   T   T   T
  0.2410333168291103  0.3656454108465397  0.0669161102622979   T   T   T
  0.7061086089651525  0.3413700034082296  0.0760994057405782   T   T   T
  0.0025107465236545  0.7704608671143589  0.1364041070486550   T   T   T
  0.5389305588541333  0.6621021211628388  0.1540239450925469   T   T   T
  0.3973420396730987  0.2160985510786233  0.1854993366495705   T   T   T
  0.8094938915950252  0.9796494638386264  0.2380473205636591   T   T   T
  0.8256923702454273  0.5078820175481908  0.2483342665101560   T   T   T
  0.3692594847356219  0.8599388925827824  0.2996353806763139   T   T   T
  0.2810490676114341  0.4061296023733192  0.3267101344202104   T   T   T
  0.6735726772257919  0.1886076471132725  0.3962662098342804   T   T   T
  0.6030449695534870  0.6430434937359806  0.4056228782388871   T   T   T
  0.1644531330123726  0.7405345004105399  0.4217443892813790   T   T   T
  0.3738589232704612  0.3430466981984353  0.4942396446507118   T   T   T
  0.8359807141590139  0.4203274505085304  0.5089770515850063   T   T   T
  0.9390448542331882  0.8688715120123121  0.5668723595931482   T   T   T
  0.4742592576828315  0.8933305857350291  0.5761163324232044   T   T   T
  0.1773324512417815  0.4643075194797390  0.6362765796579026   T   T   T
  0.6410947169112262  0.5728037991587058  0.6539706831575671   T   T   T
  0.7831251473981879  0.0189828739157960  0.6854555793682948   T   T   T
  0.3704208866485530  0.2553275204592893  0.7379928729684764   T   T   T
  0.3543797290918036  0.7269813659841589  0.7482181309817477   T   T   T
  0.8108531126955256  0.3749103652614849  0.7996491303600095   T   T   T
  0.8985760427561047  0.8287783283189540  0.8267958357193734   T   T   T
  0.5063651330679804  0.0456372526771673  0.8961903593780889   T   T   T
  0.5767172201450705  0.5912715825032535  0.9056613364972392   T   T   T
  0.0152595925161521  0.4943801449408127  0.9217469905479447   T   T   T
  0.8059974494765427  0.8914987657971238  0.9943936642033648   T   T   T
  0.9400422674671276  0.1036785304737435  0.0729284588120578   T   T   T
  0.3071854009140011  0.8663254504508018  0.1897141011681782   T   T   T
  0.0714995528179827  0.2796721824660935  0.2467644525171337   T   T   T
  0.8748425860962996  0.9236887455908303  0.4216321203204174   T   T   T
  0.2398251953433430  0.1310471144495580  0.5729295956566673   T   T   T
  0.8728422709087198  0.3686405167123965  0.6896821641517121   T   T   T
  0.1086307913845133  0.9550467342084659  0.7468053450998866   T   T   T
  0.3048303468338531  0.3108540588539839  0.9216820836563571   T   T   T
 
  0.00000000E+00  0.00000000E+00  0.00000000E+00
  0.00000000E+00  0.00000000E+00  0.00000000E+00
  0.00000000E+00  0.00000000E+00  0.00000000E+00
  0.00000000E+00  0.00000000E+00  0.00000000E+00
  0.00000000E+00  0.00000000E+00  0.00000000E+00
  0.00000000E+00  0.00000000E+00  0.00000000E+00
  0.00000000E+00  0.00000000E+00  0.00000000E+00
  0.00000000E+00  0.00000000E+00  0.00000000E+00
  0.00000000E+00  0.00000000E+00  0.00000000E+00
  0.00000000E+00  0.00000000E+00  0.00000000E+00
  0.00000000E+00  0.00000000E+00  0.00000000E+00
  0.00000000E+00  0.00000000E+00  0.00000000E+00
  0.00000000E+00  0.00000000E+00  0.00000000E+00
  0.00000000E+00  0.00000000E+00  0.00000000E+00
  0.00000000E+00  0.00000000E+00  0.00000000E+00
  0.00000000E+00  0.00000000E+00  0.00000000E+00
  0.00000000E+00  0.00000000E+00  0.00000000E+00
  0.00000000E+00  0.00000000E+00  0.00000000E+00
  0.00000000E+00  0.00000000E+00  0.00000000E+00
  0.00000000E+00  0.00000000E+00  0.00000000E+00
  0.00000000E+00  0.00000000E+00  0.00000000E+00
  0.00000000E+00  0.00000000E+00  0.00000000E+00
  0.00000000E+00  0.00000000E+00  0.00000000E+00
  0.00000000E+00  0.00000000E+00  0.00000000E+00
  0.00000000E+00  0.00000000E+00  0.00000000E+00
  0.00000000E+00  0.00000000E+00  0.00000000E+00
  0.00000000E+00  0.00000000E+00  0.00000000E+00
  0.00000000E+00  0.00000000E+00  0.00000000E+00
  0.00000000E+00  0.00000000E+00  0.00000000E+00
  0.00000000E+00  0.00000000E+00  0.00000000E+00
  0.00000000E+00  0.00000000E+00  0.00000000E+00
  0.00000000E+00  0.00000000E+00  0.00000000E+00
  0.00000000E+00  0.00000000E+00  0.00000000E+00
  0.00000000E+00  0.00000000E+00  0.00000000E+00
  0.00000000E+00  0.00000000E+00  0.00000000E+00
  0.00000000E+00  0.00000000E+00  0.00000000E+00
  0.00000000E+00  0.00000000E+00  0.00000000E+00
  0.00000000E+00  0.00000000E+00  0.00000000E+00
  0.00000000E+00  0.00000000E+00  0.00000000E+00
  0.00000000E+00  0.00000000E+00  0.00000000E+00
  0.00000000E+00  0.00000000E+00  0.00000000E+00
  0.00000000E+00  0.00000000E+00  0.00000000E+00
  0.00000000E+00  0.00000000E+00  0.00000000E+00
  0.00000000E+00  0.00000000E+00  0.00000000E+00
  0.00000000E+00  0.00000000E+00  0.00000000E+00
  0.00000000E+00  0.00000000E+00  0.00000000E+00
  0.00000000E+00  0.00000000E+00  0.00000000E+00
  0.00000000E+00  0.00000000E+00  0.00000000E+00
