Primitive Cell                          
   1.00000000000000     
    10.8203538098090810    0.0441719163322437    0.0072086687387350
     0.1489516862693519   10.8521671055740576    0.0066746775141659
     5.3067258720547885    0.0670668216324750   11.2417615337836434
   Ta   Si   O    Li
    16     8    64    16
Selective dynamics
Direct
  0.6607773492389981  0.3088663900388227  0.0043286334739818   T   T   T
  0.4262184489316567  0.5705499612677372  0.0115640205909955   T   T   T
  0.1593255097564352  0.8095374752828519  0.0155661532157225   T   T   T
  0.1856242076797159  0.2950397401701395  0.0168153731343210   T   T   T
  0.9097709250200836  0.5343501470706400  0.0259375460844637   T   T   T
  0.6778053137479461  0.7959089960259149  0.0330452297470671   T   T   T
  0.8990067858987558  0.0691933096268329  0.0502876043700979   T   T   T
  0.4524423299593821  0.0712438912785913  0.4824735902726829   T   T   T
  0.6563959647035986  0.7829246572838073  0.4947965161828307   T   T   T
  0.1542082028995040  0.2915291237750566  0.5150124410276291   T   T   T
  0.4074320897131400  0.5301653970689131  0.5175173719475339   T   T   T
  0.9356534057777210  0.5759340007931186  0.5175871021303138   T   T   T
  0.1871893545397398  0.8130999435117374  0.5306329080301992   T   T   T
  0.6861322380596917  0.3225984340490271  0.5403884567302555   T   T   T
  0.8822733272421814  0.0302920002757290  0.5574044042077873   T   T   T
  0.4375981357337082  0.0366359844289903  0.9940492594718222   T   T   T
  0.4118583829642546  0.4122871815068336  0.2604926584486122   T   T   T
  0.4167328185433021  0.9187564914007709  0.2590949712640551   T   T   T
  0.9315168718363154  0.4208638903470359  0.2746263633124499   T   T   T
  0.9282255103902344  0.9212907945001305  0.2816262732222867   T   T   T
  0.4124322976260615  0.6792894580636357  0.7581505072353778   T   T   T
  0.4176223898064961  0.1816635774446311  0.7563867145729333   T   T   T
  0.9282784739488505  0.1800305883146578  0.7781924719856548   T   T   T
  0.9312176618433128  0.6907699370635356  0.7783270287431350   T   T   T
  0.3082350972957215  0.1892434599253505  0.0427882955628505   T   T   T
  0.0456649388022115  0.1751827150978684  0.0361513607134114   T   T   T
  0.7569324175501109  0.4387901556861848  0.0452747128064459   T   T   T
  0.0376326689693869  0.6641289339046708  0.0437600064840638   T   T   T
  0.2851193421425009  0.6889723201880216  0.0634506509058710   T   T   T
  0.7523257146729350  0.9477613560655058  0.0569187612715751   T   T   T
  0.7638577790307437  0.1923084816404739  0.0857585497752353   T   T   T
  0.7682669999129956  0.6846050205574699  0.0995705755199836   T   T   T
  0.3931474437740619  0.0132078534615303  0.1656603543742037   T   T   T
  0.3699342665258669  0.5065572781232603  0.1761747470038486   T   T   T
  0.5185322011430102  0.3058819602004164  0.1795009081463661   T   T   T
  0.0773551611359409  0.3562438416870961  0.1847297172011153   T   T   T
  0.0661322898710850  0.8450445189309690  0.1943692848191958   T   T   T
  0.5170365580503358  0.8017457771417114  0.1949687859033205   T   T   T
  0.8632517034724003  0.5051725429991549  0.2043862560987435   T   T   T
  0.8686856134974619  0.0214134956581375  0.2151490581437798   T   T   T
  0.4905137147247558  0.0059847733391933  0.3204320512818200   T   T   T
  0.4823836949420581  0.4871349396230755  0.3336727424022214   T   T   T
  0.8151454857778972  0.8109764048248564  0.3390077529015727   T   T   T
  0.2616750234135310  0.3586939706699255  0.3503914432781272   T   T   T
  0.2655705541568736  0.8705517276470687  0.3519515338779513   T   T   T
  0.8180429740408570  0.3226984213317152  0.3591992338515695   T   T   T
  0.9804401279807919  0.5108124064936774  0.3561866204199333   T   T   T
  0.9526949445441417  0.9975541322389674  0.3815374442759207   T   T   T
  0.5817943937112489  0.1959672910662462  0.4256348476606178   T   T   T
  0.5631525784959166  0.6812552799242653  0.4384119739908670   T   T   T
  0.2929041278874394  0.1588041591033473  0.4787611464383161   T   T   T
  0.0628870620443607  0.7008487726204535  0.4617636629450814   T   T   T
  0.5862188601806011  0.9460780840595859  0.4921614078093199   T   T   T
  0.0378926601306304  0.1869315258069904  0.4865786699046026   T   T   T
  0.5766578156369420  0.4375449872765884  0.4960459039991036   T   T   T
  0.2936120547825070  0.6585370086650926  0.4964077938035416   T   T   T
  0.7576481682654190  0.1566376019125570  0.5371764115259978   T   T   T
  0.7676395036194208  0.6622254172230555  0.5357348087718137   T   T   T
  0.3088054621323337  0.9155764455446800  0.5492222482383085   T   T   T
  0.0356892245040825  0.4439495336706756  0.5563993259226194   T   T   T
  0.0463965173258387  0.9421057810114633  0.5482871701944418   T   T   T
  0.2848467895503930  0.3997298090643113  0.5711751803971836   T   T   T
  0.7802208843284930  0.4224835261612938  0.5962698854097752   T   T   T
  0.7546337988609153  0.9056387691112704  0.6051343280998935   T   T   T
  0.4002441466963305  0.1041959483159189  0.6529284589569784   T   T   T
  0.5216984313118402  0.7806800995198699  0.6734965090541394   T   T   T
  0.3777322501998981  0.5802448614374285  0.6769169288265644   T   T   T
  0.0720212824908586  0.2441412079817198  0.6910476487202146   T   T   T
  0.5312342446700455  0.2920728423429324  0.6975054652230455   T   T   T
  0.0724759954887162  0.7652618635339365  0.6993304712085546   T   T   T
  0.8643706992519782  0.6242969898260711  0.6977388144148833   T   T   T
  0.8516693116534313  0.0968187248587782  0.7156512538279287   T   T   T
  0.4773957329963139  0.0821773975235587  0.8230462497144160   T   T   T
  0.4891838284495975  0.6049869075907566  0.8294885491049300   T   T   T
  0.2758117281244594  0.2553111653488429  0.8385925137050734   T   T   T
  0.8242884504477672  0.2955142710706866  0.8455683004657146   T   T   T
  0.2671479289878036  0.7374854652694225  0.8536448172300126   T   T   T
  0.9550336883715431  0.5849414820951182  0.8613591826524001   T   T   T
  0.8294936278814760  0.7979826065997457  0.8645909128084952   T   T   T
  0.9457843239381987  0.0807038074725313  0.8712441282274170   T   T   T
  0.5619903380618254  0.4141726417461697  0.9479201478777384   T   T   T
  0.5741354475290379  0.9078731473074484  0.9562882846193759   T   T   T
  0.3046584488417423  0.4451305611913483  0.9776541369822951   T   T   T
  0.0596076527756395  0.4208806529298101  0.9686661320958407   T   T   T
  0.5935268515747083  0.1506299541345655  0.9816267192949724   T   T   T
  0.2943446846374940  0.9328396750836916  0.9959551696659474   T   T   T
  0.0381719771057050  0.9166258949539454  0.9831729422510236   T   T   T
  0.5819595382523488  0.6587870069128030  0.9971056993460792   T   T   T
  0.5682987961703176  0.1206225674892920  0.1764218135107498   T   T   T
  0.8774589295540665  0.6911367486658051  0.2070909772262368   T   T   T
  0.1755959947063133  0.4467816320749378  0.2601768873561241   T   T   T
  0.5731824073153149  0.6573735317381093  0.2698293425452221   T   T   T
  0.1531350169651091  0.7755771175409336  0.2950667994049567   T   T   T
  0.6331453008890975  0.3594776467548755  0.3309339451649365   T   T   T
  0.7831783827736984  0.1384632797082048  0.3596029036508241   T   T   T
  0.1754895651799586  0.0503344003260437  0.4145825150706202   T   T   T
  0.5497099993335155  0.9643460074864905  0.6784846490707750   T   T   T
  0.6903742707174700  0.7176320187822540  0.7140813366812750   T   T   T
  0.1897324668327443  0.3359732533507511  0.7444304837343765   T   T   T
  0.8568180960300182  0.4307293176070033  0.7263784818924393   T   T   T
  0.4912408365008289  0.4165350127500460  0.8206325028311809   T   T   T
  0.0220009549808253  0.9071009624707145  0.8288976083538131   T   T   T
  0.7374863656281079  0.0146610769735673  0.8885630754007394   T   T   T
  0.1900843050564944  0.5589519378126084  0.9380763041568088   T   T   T
 
  0.00000000E+00  0.00000000E+00  0.00000000E+00
  0.00000000E+00  0.00000000E+00  0.00000000E+00
  0.00000000E+00  0.00000000E+00  0.00000000E+00
  0.00000000E+00  0.00000000E+00  0.00000000E+00
  0.00000000E+00  0.00000000E+00  0.00000000E+00
  0.00000000E+00  0.00000000E+00  0.00000000E+00
  0.00000000E+00  0.00000000E+00  0.00000000E+00
  0.00000000E+00  0.00000000E+00  0.00000000E+00
  0.00000000E+00  0.00000000E+00  0.00000000E+00
  0.00000000E+00  0.00000000E+00  0.00000000E+00
  0.00000000E+00  0.00000000E+00  0.00000000E+00
  0.00000000E+00  0.00000000E+00  0.00000000E+00
  0.00000000E+00  0.00000000E+00  0.00000000E+00
  0.00000000E+00  0.00000000E+00  0.00000000E+00
  0.00000000E+00  0.00000000E+00  0.00000000E+00
  0.00000000E+00  0.00000000E+00  0.00000000E+00
  0.00000000E+00  0.00000000E+00  0.00000000E+00
  0.00000000E+00  0.00000000E+00  0.00000000E+00
  0.00000000E+00  0.00000000E+00  0.00000000E+00
  0.00000000E+00  0.00000000E+00  0.00000000E+00
  0.00000000E+00  0.00000000E+00  0.00000000E+00
  0.00000000E+00  0.00000000E+00  0.00000000E+00
  0.00000000E+00  0.00000000E+00  0.00000000E+00
  0.00000000E+00  0.00000000E+00  0.00000000E+00
  0.00000000E+00  0.00000000E+00  0.00000000E+00
  0.00000000E+00  0.00000000E+00  0.00000000E+00
  0.00000000E+00  0.00000000E+00  0.00000000E+00
  0.00000000E+00  0.00000000E+00  0.00000000E+00
  0.00000000E+00  0.00000000E+00  0.00000000E+00
  0.00000000E+00  0.00000000E+00  0.00000000E+00
  0.00000000E+00  0.00000000E+00  0.00000000E+00
  0.00000000E+00  0.00000000E+00  0.00000000E+00
  0.00000000E+00  0.00000000E+00  0.00000000E+00
  0.00000000E+00  0.00000000E+00  0.00000000E+00
  0.00000000E+00  0.00000000E+00  0.00000000E+00
  0.00000000E+00  0.00000000E+00  0.00000000E+00
  0.00000000E+00  0.00000000E+00  0.00000000E+00
  0.00000000E+00  0.00000000E+00  0.00000000E+00
  0.00000000E+00  0.00000000E+00  0.00000000E+00
  0.00000000E+00  0.00000000E+00  0.00000000E+00
  0.00000000E+00  0.00000000E+00  0.00000000E+00
  0.00000000E+00  0.00000000E+00  0.00000000E+00
  0.00000000E+00  0.00000000E+00  0.00000000E+00
  0.00000000E+00  0.00000000E+00  0.00000000E+00
  0.00000000E+00  0.00000000E+00  0.00000000E+00
  0.00000000E+00  0.00000000E+00  0.00000000E+00
  0.00000000E+00  0.00000000E+00  0.00000000E+00
  0.00000000E+00  0.00000000E+00  0.00000000E+00
  0.00000000E+00  0.00000000E+00  0.00000000E+00
  0.00000000E+00  0.00000000E+00  0.00000000E+00
  0.00000000E+00  0.00000000E+00  0.00000000E+00
  0.00000000E+00  0.00000000E+00  0.00000000E+00
  0.00000000E+00  0.00000000E+00  0.00000000E+00
  0.00000000E+00  0.00000000E+00  0.00000000E+00
  0.00000000E+00  0.00000000E+00  0.00000000E+00
  0.00000000E+00  0.00000000E+00  0.00000000E+00
  0.00000000E+00  0.00000000E+00  0.00000000E+00
  0.00000000E+00  0.00000000E+00  0.00000000E+00
  0.00000000E+00  0.00000000E+00  0.00000000E+00
  0.00000000E+00  0.00000000E+00  0.00000000E+00
  0.00000000E+00  0.00000000E+00  0.00000000E+00
  0.00000000E+00  0.00000000E+00  0.00000000E+00
  0.00000000E+00  0.00000000E+00  0.00000000E+00
  0.00000000E+00  0.00000000E+00  0.00000000E+00
  0.00000000E+00  0.00000000E+00  0.00000000E+00
  0.00000000E+00  0.00000000E+00  0.00000000E+00
  0.00000000E+00  0.00000000E+00  0.00000000E+00
  0.00000000E+00  0.00000000E+00  0.00000000E+00
  0.00000000E+00  0.00000000E+00  0.00000000E+00
  0.00000000E+00  0.00000000E+00  0.00000000E+00
  0.00000000E+00  0.00000000E+00  0.00000000E+00
  0.00000000E+00  0.00000000E+00  0.00000000E+00
  0.00000000E+00  0.00000000E+00  0.00000000E+00
  0.00000000E+00  0.00000000E+00  0.00000000E+00
  0.00000000E+00  0.00000000E+00  0.00000000E+00
  0.00000000E+00  0.00000000E+00  0.00000000E+00
  0.00000000E+00  0.00000000E+00  0.00000000E+00
  0.00000000E+00  0.00000000E+00  0.00000000E+00
  0.00000000E+00  0.00000000E+00  0.00000000E+00
  0.00000000E+00  0.00000000E+00  0.00000000E+00
  0.00000000E+00  0.00000000E+00  0.00000000E+00
  0.00000000E+00  0.00000000E+00  0.00000000E+00
  0.00000000E+00  0.00000000E+00  0.00000000E+00
  0.00000000E+00  0.00000000E+00  0.00000000E+00
  0.00000000E+00  0.00000000E+00  0.00000000E+00
  0.00000000E+00  0.00000000E+00  0.00000000E+00
  0.00000000E+00  0.00000000E+00  0.00000000E+00
  0.00000000E+00  0.00000000E+00  0.00000000E+00
  0.00000000E+00  0.00000000E+00  0.00000000E+00
  0.00000000E+00  0.00000000E+00  0.00000000E+00
  0.00000000E+00  0.00000000E+00  0.00000000E+00
  0.00000000E+00  0.00000000E+00  0.00000000E+00
  0.00000000E+00  0.00000000E+00  0.00000000E+00
  0.00000000E+00  0.00000000E+00  0.00000000E+00
  0.00000000E+00  0.00000000E+00  0.00000000E+00
  0.00000000E+00  0.00000000E+00  0.00000000E+00
  0.00000000E+00  0.00000000E+00  0.00000000E+00
  0.00000000E+00  0.00000000E+00  0.00000000E+00
  0.00000000E+00  0.00000000E+00  0.00000000E+00
  0.00000000E+00  0.00000000E+00  0.00000000E+00
  0.00000000E+00  0.00000000E+00  0.00000000E+00
  0.00000000E+00  0.00000000E+00  0.00000000E+00
  0.00000000E+00  0.00000000E+00  0.00000000E+00
  0.00000000E+00  0.00000000E+00  0.00000000E+00
