(Converted from LAMMPS) LAMMPS data file via write_data, version 7 Feb 2024, timestep = 6461, units = metal
 1.0
     9.33117606      0.00000000      0.00000000 
    -4.43245436      8.38059652      0.00000000 
     0.87985144     -0.28147013     14.82397713 
Se Ga O
 16 8 48
Cartesian
     0.12953207      6.08895421      8.27614274 
     5.41682174      2.79631194      7.11822820 
     1.07392707      4.57884897     13.48931164 
     5.49398220      1.77385849      1.76126634 
     1.00634652      2.91019124     10.20773447 
     6.76090262      0.14109763      9.94531623 
     4.91266807      6.24190852     11.13869934 
     0.96765252      3.10708852      5.30070653 
    -1.52534590      6.35317311      4.44972685 
     4.56166383      7.61797442      4.38488340 
    -0.89508548      7.97737311     13.59904186 
     7.69658537      2.58556734     12.50452168 
     3.85055028      3.15333792     12.24732430 
    -0.40406318      2.34060341      2.15498365 
     0.54383828      6.70840735      1.63087563 
     4.07574525      4.98082873      1.68110318 
     5.06637125      8.07933481      0.47310527 
     9.38660183      0.69462713      7.62628593 
     2.67387243      7.69167240     13.47659751 
     6.75261071      4.73188845      0.51525759 
     2.43184324      2.77757880      0.47234800 
     1.81607193      7.96173195      6.55389162 
     6.39134133      5.77777071      7.78307592 
     2.78284145      4.45869932      7.84926671 
     1.03502278      1.43285508      0.40408258 
     4.18311969      3.55966660     13.92742244 
     2.49180240      4.21869581      1.76989722 
     1.79334510      3.56690838     14.73707159 
     3.76718732      2.11035913      1.71152889 
     4.16042834      1.11929880     14.22466626 
     2.97282353      7.38769810      5.10612070 
     5.89177558     -0.11390751      8.43627618 
     5.18478860      1.19789700      6.41903325 
     0.14435717      7.00175954      6.77142553 
     7.57784697      0.93255987      6.96641588 
     2.44435729      6.29483146      7.32225141 
     2.32912499      4.02938328     12.38335534 
     4.54528237      4.54364567     11.42098305 
     6.75039611      3.91193502      7.39139100 
     3.73550974      2.78189860      7.63845113 
     8.66886489     -0.14618719     14.49069884 
    -2.98767169      6.62573358      0.61644149 
    -2.64081529      7.77351927     13.50546484 
     3.94625048      6.66493071      1.18650032 
     8.62390909      0.62032200      1.93923715 
     1.60758103      6.87052554      0.23804256 
     5.12734741      0.05889164      1.91123584 
    -0.56699428      6.55766170      2.98772812 
     2.30494812      3.99016178      6.02834043 
     0.26568041      2.80160048      3.71592478 
     0.21379024      2.40727134      6.72883824 
     7.50506896      4.06240955     13.44259887 
    -1.27838430      3.75177321      1.57020869 
     5.94830450      2.96666880      0.54946720 
    -0.04039051      5.22082301     14.69092086 
     5.75545004      4.80863260      2.17769184 
     9.58879283      0.12705926      5.78220305 
    -3.15684959      6.94838045      4.16321195 
    -1.99106708      5.95888581      6.10060022 
     5.64345075      6.09945788      9.54397248 
    -1.38952768      5.46143466      8.90563911 
    -3.00414316      7.71657395      7.80776282 
     4.59008080      5.09663700      7.54832902 
     2.47990878      3.64215169      9.58282087 
     0.84627051      4.51490114      7.95021065 
     0.75843344      7.38335201     13.49458559 
     6.96219567      1.24305069     13.37397740 
     2.23749601      7.93368954     11.60168924 
     4.06002221      6.63217689     12.62813398 
     8.35771180      0.28744098      9.21978482 
     1.06657568      1.65668308      8.97375182 
    -0.26766265      2.67829549     11.39970959 
