pair_coeff 1 34 lj/cut 3.0 1.5679817439269972 6.0
pair_coeff 1 61 lj/cut 3.0 1.5679817439269972 6.0
pair_coeff 1 65 lj/cut 3.0 1.5679817439269972 6.0
pair_coeff 2 33 lj/cut 3.0 1.5679817439269972 6.0
pair_coeff 2 39 lj/cut 3.0 1.5679817439269972 6.0
pair_coeff 2 40 lj/cut 3.0 1.5679817439269972 6.0
pair_coeff 3 28 lj/cut 3.0 1.5679817439269972 6.0
pair_coeff 3 37 lj/cut 3.0 1.5679817439269972 6.0
pair_coeff 3 55 lj/cut 3.0 1.5679817439269972 6.0
pair_coeff 4 29 lj/cut 3.0 1.5679817439269972 6.0
pair_coeff 4 47 lj/cut 3.0 1.5679817439269972 6.0
pair_coeff 4 54 lj/cut 3.0 1.5679817439269972 6.0
pair_coeff 5 64 lj/cut 3.0 1.5679817439269972 6.0
pair_coeff 5 71 lj/cut 3.0 1.5679817439269972 6.0
pair_coeff 5 72 lj/cut 3.0 1.5679817439269972 6.0
pair_coeff 6 32 lj/cut 3.0 1.5679817439269972 6.0
pair_coeff 6 68 lj/cut 3.0 1.5679817439269972 6.0
pair_coeff 6 70 lj/cut 3.0 1.5679817439269972 6.0
pair_coeff 7 38 lj/cut 3.0 1.5679817439269972 6.0
pair_coeff 7 60 lj/cut 3.0 1.5679817439269972 6.0
pair_coeff 7 69 lj/cut 3.0 1.5679817439269972 6.0
pair_coeff 8 49 lj/cut 3.0 1.5679817439269972 6.0
pair_coeff 8 50 lj/cut 3.0 1.5679817439269972 6.0
pair_coeff 8 51 lj/cut 3.0 1.5679817439269972 6.0
pair_coeff 9 48 lj/cut 3.0 1.5679817439269972 6.0
pair_coeff 9 58 lj/cut 3.0 1.5679817439269972 6.0
pair_coeff 9 59 lj/cut 3.0 1.5679817439269972 6.0
pair_coeff 10 31 lj/cut 3.0 1.5679817439269972 6.0
pair_coeff 10 57 lj/cut 3.0 1.5679817439269972 6.0
pair_coeff 10 58 lj/cut 3.0 1.5679817439269972 6.0
pair_coeff 11 30 lj/cut 3.0 1.5679817439269972 6.0
pair_coeff 11 43 lj/cut 3.0 1.5679817439269972 6.0
pair_coeff 11 66 lj/cut 3.0 1.5679817439269972 6.0
pair_coeff 12 52 lj/cut 3.0 1.5679817439269972 6.0
pair_coeff 12 67 lj/cut 3.0 1.5679817439269972 6.0
pair_coeff 12 72 lj/cut 3.0 1.5679817439269972 6.0
pair_coeff 13 26 lj/cut 3.0 1.5679817439269972 6.0
pair_coeff 13 37 lj/cut 3.0 1.5679817439269972 6.0
pair_coeff 13 38 lj/cut 3.0 1.5679817439269972 6.0
pair_coeff 14 45 lj/cut 3.0 1.5679817439269972 6.0
pair_coeff 14 50 lj/cut 3.0 1.5679817439269972 6.0
pair_coeff 14 53 lj/cut 3.0 1.5679817439269972 6.0
pair_coeff 15 46 lj/cut 3.0 1.5679817439269972 6.0
pair_coeff 15 47 lj/cut 3.0 1.5679817439269972 6.0
pair_coeff 15 48 lj/cut 3.0 1.5679817439269972 6.0
pair_coeff 16 27 lj/cut 3.0 1.5679817439269972 6.0
pair_coeff 16 44 lj/cut 3.0 1.5679817439269972 6.0
pair_coeff 16 56 lj/cut 3.0 1.5679817439269972 6.0
pair_coeff 17 25 lj/cut 3.0 1.7283435131922582 6.0
pair_coeff 17 41 lj/cut 3.0 1.7283435131922582 6.0
pair_coeff 17 42 lj/cut 3.0 1.7283435131922582 6.0
pair_coeff 17 43 lj/cut 3.0 1.7283435131922582 6.0
pair_coeff 17 44 lj/cut 3.0 1.7283435131922582 6.0
pair_coeff 17 45 lj/cut 3.0 1.7283435131922582 6.0
pair_coeff 18 35 lj/cut 3.0 1.7283435131922582 6.0
pair_coeff 18 51 lj/cut 3.0 1.7283435131922582 6.0
pair_coeff 18 57 lj/cut 3.0 1.7283435131922582 6.0
pair_coeff 18 62 lj/cut 3.0 1.7283435131922582 6.0
pair_coeff 18 70 lj/cut 3.0 1.7283435131922582 6.0
pair_coeff 18 71 lj/cut 3.0 1.7283435131922582 6.0
pair_coeff 19 41 lj/cut 3.0 1.7283435131922582 6.0
pair_coeff 19 46 lj/cut 3.0 1.7283435131922582 6.0
pair_coeff 19 66 lj/cut 3.0 1.7283435131922582 6.0
pair_coeff 19 67 lj/cut 3.0 1.7283435131922582 6.0
pair_coeff 19 68 lj/cut 3.0 1.7283435131922582 6.0
pair_coeff 19 69 lj/cut 3.0 1.7283435131922582 6.0
pair_coeff 20 42 lj/cut 3.0 1.7283435131922582 6.0
pair_coeff 20 52 lj/cut 3.0 1.7283435131922582 6.0
pair_coeff 20 53 lj/cut 3.0 1.7283435131922582 6.0
pair_coeff 20 54 lj/cut 3.0 1.7283435131922582 6.0
pair_coeff 20 55 lj/cut 3.0 1.7283435131922582 6.0
pair_coeff 20 56 lj/cut 3.0 1.7283435131922582 6.0
pair_coeff 21 25 lj/cut 3.0 1.7283435131922582 6.0
pair_coeff 21 26 lj/cut 3.0 1.7283435131922582 6.0
pair_coeff 21 27 lj/cut 3.0 1.7283435131922582 6.0
pair_coeff 21 28 lj/cut 3.0 1.7283435131922582 6.0
pair_coeff 21 29 lj/cut 3.0 1.7283435131922582 6.0
pair_coeff 21 30 lj/cut 3.0 1.7283435131922582 6.0
pair_coeff 22 31 lj/cut 3.0 1.7283435131922582 6.0
pair_coeff 22 32 lj/cut 3.0 1.7283435131922582 6.0
pair_coeff 22 33 lj/cut 3.0 1.7283435131922582 6.0
pair_coeff 22 34 lj/cut 3.0 1.7283435131922582 6.0
pair_coeff 22 35 lj/cut 3.0 1.7283435131922582 6.0
pair_coeff 22 36 lj/cut 3.0 1.7283435131922582 6.0
pair_coeff 23 39 lj/cut 3.0 1.7283435131922582 6.0
pair_coeff 23 59 lj/cut 3.0 1.7283435131922582 6.0
pair_coeff 23 60 lj/cut 3.0 1.7283435131922582 6.0
pair_coeff 23 61 lj/cut 3.0 1.7283435131922582 6.0
pair_coeff 23 62 lj/cut 3.0 1.7283435131922582 6.0
pair_coeff 23 63 lj/cut 3.0 1.7283435131922582 6.0
pair_coeff 24 36 lj/cut 3.0 1.7283435131922582 6.0
pair_coeff 24 40 lj/cut 3.0 1.7283435131922582 6.0
pair_coeff 24 49 lj/cut 3.0 1.7283435131922582 6.0
pair_coeff 24 63 lj/cut 3.0 1.7283435131922582 6.0
pair_coeff 24 64 lj/cut 3.0 1.7283435131922582 6.0
pair_coeff 24 65 lj/cut 3.0 1.7283435131922582 6.0
