make_exsolution.py
1.0000000000000000
 9.514297684035192  0.000000000000000  0.000000000000000 
 -4.757148822298569  8.239623504926712  0.000000000000000 
 0.000000000000000  0.000000000000000  14.987014047159631 
 Se  Ga  O 
 16  8  48 
Selective dynamics
Cartesian
 0.001333992718138 5.496446582250977 9.528709722721816 T T T
 4.766790072936853 2.755036637395952 5.466105315400027 T T T
 0.005666792522707 5.494181190868175 13.398104885881480 T T T
 4.760494567556766 2.753913534649867 1.598217646169648 T T T
 1.797721180693221 1.948719652115297 10.130646682602423 T T T
 6.942406048531228 0.582861367895965 10.131328816191692 T T T
 5.543511398423330 5.721420882334248 10.133683303313569 T T T
 0.786603431670509 2.530510668015910 4.867518579269437 T T T
 -2.960917591429895 6.301591016420174 4.871480031502894 T T T
 2.183920226052469 7.660549045225694 4.863338894057478 T T T
 3.959780022429728 0.712431506834247 12.879771412385283 T T T
 6.929520559410159 3.081605978497595 12.871818235241365 T T T
 3.390867982090625 4.469526028611969 12.878931661865643 T T T
 -1.361805795699530 3.782819802828848 2.124454776352386 T T T
 -0.797941932867073 7.545931744842812 2.125546307112380 T T T
 2.173459938042374 5.173449124853923 2.120006797687557 T T T
 0.003221706448667 0.007033116397716 0.004275480895883 T T T
 0.001331918001432 0.000063707165452 7.499510967766270 T T T
 6.562730662027517 0.007184432520486 0.009537217452383 T T T
 -3.272194791718099 5.682485887548573 0.006178819631647 T T T
 1.483348535564362 2.565339023674467 0.004085099332562 T T T
 5.879705077395446 0.004222892326180 7.494721152212541 T T T
 -2.934433737651471 5.088437252644241 7.499453460401416 T T T
 1.827025987861110 3.161821223157967 7.503260383871605 T T T
 0.743285121006514 1.286186070036091 0.004180290114223 T T T
 2.437108258827493 3.517432526143218 -1.051998642980713 T T T
 1.828404236803368 3.869394074264195 1.062045948510060 T T T
 0.744507664043535 4.029760107271320 -0.792412030972794 T T T
 3.121921551560564 2.659626279162167 0.801151372751105 T T T
 2.721564278997045 1.638885265254357 -1.051578767720893 T T T
 6.410387062873242 -0.287425783687419 6.179030023135009 T T T
 6.411055562963337 0.293542130111073 8.813024984202116 T T T
 5.323247575166150 1.379629764861066 6.480413233806283 T T T
 5.319093946206077 -1.369477015174777 8.511715437467178 T T T
 7.697667339716035 0.002143299745816 7.497116059989406 T T T
 6.231939943777562 -2.536789694721282 7.498990768042073 T T T
 1.698267387306666 4.981853609740072 13.138518273873562 T T T
 4.467189690256977 5.095473455473108 11.506307482589605 T T T
 5.673327009660287 3.921736945020096 6.482779387900721 T T T
 3.296908030398982 2.958428930276960 6.484682849635815 T T T
 -1.474172657779504 0.007108774459101 0.006906349174133 T T T
 0.744087868514568 -1.275052250490212 0.005227150263765 T T T
 1.981500864439198 0.359732311615982 -1.051483576939233 T T T
 -1.290233608622791 -1.529570631837536 1.062141139291720 T T T
 -0.679292044625432 1.894926459613282 1.064365128624134 T T T
 0.503819953430938 7.896369841145004 1.067541762282382 T T T
 -0.397298093804438 9.269734392209696 1.861881976641014 T T T
 -1.879429762148484 6.923761380631493 3.498513169307637 T T T
 1.306814709765810 2.846165945586939 6.185389481570521 T T T
 -0.287601182014510 3.156665235422379 3.495986677810912 T T T
 0.393967674835971 1.265287187590681 6.183514773517853 T T T
 -2.928485958171566 4.382045933023084 -1.054508496143310 T T T
 -2.317000293708814 4.732652845188710 1.065316797992016 T T T
 -4.012998954098263 4.218199711099221 0.802198232900648 T T T
 -1.633263999597696 5.588333539208374 -0.791365170823252 T T T
 -5.306516268855459 5.427967506201249 1.063092808659602 T T T
 3.471200502895262 7.950118128658929 6.181424930911874 T T T
 4.368650159328883 6.981070030822934 4.867409462780186 T T T
 -2.947675664540683 5.695014134532207 6.185466745952155 T T T
 -3.452610011631667 5.404929067489244 8.816568381857493 T T T
 -1.466549872466667 5.292441917447609 8.514081591561617 T T T
 -3.845125320974304 6.664062232368202 7.499482214083843 T T T
 -5.310852716912777 4.125129237901104 7.501356922136511 T T T
 1.812373584277166 2.555270437636632 8.816953533237013 T T T
 0.914179990289624 4.329133902704472 8.515985053296710 T T T
 5.261255342228623 0.359807969677367 -1.048852708660982 T T T
 6.746125610718838 1.544395205509041 -1.052829297232941 T T T
 6.752568355279372 0.295022900208226 -2.423074006757778 T T T
 8.431695441374707 -1.255509095035989 -2.421896763196839 T T T
 -1.285279858751266 0.291462537530708 8.815419891978980 T T T
 0.899526549347327 0.974391679640375 8.815078825184347 T T T
 -0.393527971965906 2.515162815306446 11.501232458921894 T T T
