make_exsolution.py
1.0000000000000000
 9.514297684035192  0.000000000000000  0.000000000000000 
 -4.757148822298569  8.239623504926712  0.000000000000000 
 0.000000000000000  0.000000000000000  14.987014047159631 
 Se  Ga 
 16  8 
Selective dynamics
Direct
 0.333677691665616 0.667074967559439 0.635797744149557 T T T
 0.668195532607854 0.334364383973204 0.364722772541604 T T T
 0.333995621121638 0.666800028858484 0.893980938679424 T T T
 0.667465691133487 0.334228078868315 0.106640164687945 T T T
 0.307202390261901 0.236505909638966 0.675961645910541 T T T
 0.765050816787057 0.070738835038695 0.676007160886848 T T T
 0.929840074435997 0.694378921429267 0.676164262702758 T T T
 0.236233352539879 0.307114841655428 0.324782412557486 T T T
 0.071188403033869 0.764791135499367 0.325046738207745 T T T
 0.694401255291348 0.929720762198082 0.324503525435688 T T T
 0.459424614151075 0.086464084967992 0.859395432062485 T T T
 0.915326267898043 0.373998396486807 0.858864760834788 T T T
 0.627618582254123 0.542442992199766 0.859339400186022 T T T
 0.086417962838024 0.459101050013631 0.141753038308189 T T T
 0.374037462922501 0.915810260059926 0.141825870078184 T T T
 0.542378674472893 0.627874455885098 0.141456249458133 T T T
 0.000765403639189 0.000853572544123 0.000285279034398 T T T
 0.000143857108092 0.000007731805393 0.500400609765732 T T T
 0.690211596708117 0.000871936990348 0.000636365417579 T T T
 0.000902846145579 0.689653584796787 0.000412278230487 T T T
 0.311578195438844 0.311341776980535 0.000272575932718 T T T
 0.618242497843364 0.000512510349976 0.500081012043420 T T T
 0.000354925165526 0.617557009686391 0.500396772619475 T T T
 0.383896366646224 0.383733701092947 0.500650787425774 T T T
