(Converted from LAMMPS) LAMMPS data file via write_data, version 7 Feb 2024, timestep = 2913, units = metal
 1.0
     9.30033313      0.00000000      0.00000000 
     0.10196559      9.35490356      0.00000000 
     0.04499733      0.99988792     14.19530510 
 Ta P O
 16 8 64
Cartesian
     4.60270136      2.32598127     10.60561050 
     9.28596311      4.99861860     10.72962848 
     4.48542830      1.42363779      7.04733949 
     0.53237633      4.95636677      6.98376932 
     7.29457289      9.76297248     14.11604706 
     2.16524063     10.15157158     13.74405068 
     0.42573845      7.80473393     12.44676414 
     9.35202490      2.76832353     13.39125762 
     3.28891263      5.48805056     11.89793533 
     6.98079333      5.48550238     13.30732496 
     4.51252043      1.84126915      0.09120771 
     4.83781133      8.33984949     11.89450257 
     2.67720345      0.39751474      4.03558774 
     6.65005797      9.71767311      4.14934011 
     9.23796749      3.08411431      3.91803132 
     9.35700562      6.96017542      4.14134004 
     9.23712001      0.48601723      2.06158399 
     9.32407986      0.46003494      5.15567289 
     4.58486800      8.12407401      0.97624448 
     0.64980908      5.50578093     14.10630731 
     6.83998810      5.52527021      5.92366615 
     3.01772149      5.86142926      5.21361034 
     5.08085402      7.65218767      6.38029286 
     4.86965734      4.05614434      5.26468626 
     1.15339943      6.96477680     14.04331683 
     8.91813123      8.70599063     13.96354694 
     1.08786372      9.61130789     12.22444224 
     9.28848910      6.93915212     10.76670630 
     7.94750335      7.06259903     12.70576036 
     2.08598967      7.00206454     11.85657787 
     5.82512742      1.36328729      5.64655174 
     3.38757704      1.50324388      5.45176244 
     5.15953790      2.00040907      8.77110475 
     4.63672048      3.30567364      6.59300983 
     4.64316188      8.84703263      7.25125287 
     2.72044623      1.11872529      7.79248675 
     8.09240442      9.02770874      1.64907348 
     8.93497248      1.66010179      1.10232363 
     1.07463426      9.09963043      1.18877885 
     9.26384034      0.46231413      3.60783434 
     4.70701130      8.36247848     13.83010248 
     4.17554737      6.85410130     10.84538250 
     5.72377057      6.73745698     12.53391115 
     3.35399726      9.50287543     12.35401064 
     6.54277095      9.07513487     12.46165049 
     5.06360432      9.78010258     10.62021273 
     8.42696771      4.57779083      0.35053199 
     5.56977784      4.40127351     14.22443283 
     7.64320424      3.66635157     13.30494871 
     7.49423985      5.11170867     11.46929659 
     7.93717408      9.65250772      5.60646545 
     1.57313078      9.65411439      5.57793702 
     0.45481275      5.30797140     12.58561826 
     0.37350209      5.40608207      8.87040543 
     9.16470796      3.22212242     11.50993419 
     1.91460683      4.80022799     10.71546746 
     0.31392065      6.64338110      6.04213495 
     0.81109576      3.67762356      5.54596638 
     7.89371364      5.00815634      6.92361672 
     2.37362324      5.35928959      6.52380206 
     9.36738240      3.24826943      7.78376323 
     4.54851205      0.28536665      1.25961719 
     3.51157454      3.99979114     13.12593717 
     6.31901235      1.14050135      0.19657148 
     2.69817247      1.30876006      0.55880363 
     4.78138571      2.05854196     12.52319054 
     3.04745030      8.05696236      0.85634541 
     1.78833512      2.36526857     12.62986669 
     6.38745306      4.28683218      5.12416636 
     3.77679742      4.76591415      4.44292109 
     4.70750201      9.70405987      3.84777358 
     5.92061662      8.31935607      5.27377531 
     7.58944079      2.01976651      3.96446591 
     7.82684584      8.16459790      3.88126004 
     9.19968102      5.03429841      3.78487067 
     1.79183849      6.09621026      4.30878350 
     7.68631843      6.29632345      4.88943194 
     1.58618508      8.17788855      3.86763088 
     5.97157244      6.46122811      6.78601259 
     3.85452999      7.08291600      5.64828700 
     6.09080238      7.87574282      1.20859195 
     8.16793307      1.37129256     12.74676948 
     1.59658619      2.04226461      3.87982613 
     2.69573343      2.10513521     10.32059788 
     1.13224939      3.06959077      0.10654929 
     4.32934148      4.22846642     10.85454515 
     6.49601738      2.67726254     10.83157687 
     3.55247357      6.25494090     13.66330694 
