make_exsolution.py
1.0000000000000000
 13.464194398494520  0.000000000000000  0.000000000000000 
 0.000000000000000  9.181704896855987  0.000000000000000 
 2.799307509992965  0.000000000000000  8.565187588255403 
 Ta  P 
 16  8 
Selective dynamics
Direct
 0.728233090400656 0.796089586218473 0.801914432396353 T T T
 0.272125580895898 0.296034494597882 0.199064781171265 T T T
 0.920355255666173 0.953290878217217 0.212607482561655 T T T
 0.079918727508130 0.454222397833360 0.789318013584972 T T T
 0.497927853626496 0.357342308050598 0.918918654316339 T T T
 0.502447592764257 0.857372318178911 0.082643224228376 T T T
 0.095392283513364 0.791057821052051 0.696981998002904 T T T
 0.905312987331405 0.291526696305659 0.303718541325189 T T T
 0.712235454115684 0.405150083785852 0.980736416410611 T T T
 0.288309272187278 0.904409476136312 0.020035753060815 T T T
 0.871004791057209 0.738312360558674 0.426930909858648 T T T
 0.129318943657308 0.238633478843474 0.574187176650301 T T T
 0.493868823422803 0.271267346590151 0.605388507972227 T T T
 0.506663496735478 0.770732635917365 0.395942771730630 T T T
 0.706689920760869 0.059448942973297 0.580225303656277 T T T
 0.294181864455810 0.558826041129915 0.420220297850670 T T T
 0.841236391141442 0.073558542605843 0.925196179155374 T T T
 0.159074644110061 0.573178315151255 0.076328918755202 T T T
 0.280075939853673 0.442242569759111 0.822431357066574 T T T
 0.720082011650205 0.943269845293520 0.179001228913844 T T T
 0.698860420855585 0.442599622208543 0.563088008632847 T T T
 0.301573078470712 0.943303993075508 0.438052047098028 T T T
 0.909743485603331 0.488540127969054 0.594259729422663 T T T
 0.090461319368448 0.988368029385192 0.406437824439707 T T T
