make_exsolution.py
1.0000000000000000
 13.464194398494520  0.000000000000000  0.000000000000000 
 0.000000000000000  9.181704896855987  0.000000000000000 
 2.799307509992965  0.000000000000000  8.565187588255403 
 Ta  P  O 
 16  8  64 
Selective dynamics
Cartesian
 12.049876989549722 7.309459652118210 6.868547543204119 T T T
 4.221195258893445 2.718101368687660 1.705027192946897 T T T
 12.986995800581017 8.752835524655165 1.821022970807314 T T T
 3.285585126450915 4.170536014448230 6.760656853144412 T T T
 9.276533307752624 3.281011619681996 7.870710652566665 T T T
 6.996395862266090 7.872139612252076 0.707854718414294 T T T
 3.235447190679667 7.263259469249844 5.969781558531925 T T T
 13.039511646567552 2.676712095033917 2.601406280481545 T T T
 12.335059427495404 3.719968508258170 8.400191381190249 T T T
 3.937938321629484 8.304020915803733 0.171609983437843 T T T
 12.922488731029807 6.778966216350880 3.656743330163879 T T T
 3.348501872548800 2.191062181250905 4.918020878780570 T T T
 8.344214442750474 2.490696724543920 5.185266134556175 T T T
 7.930181389100452 7.076639617369192 3.391324114086635 T T T
 11.139239522593993 0.545842650810833 4.969738569268467 T T T
 5.137247647169453 5.130975798333186 3.599265679483548 T T T
 13.916478917942783 0.675392830849658 7.924478830402932 T T T
 2.355480047670273 5.262754142995941 0.653771507547011 T T T
 6.073235174821079 4.060540768355405 7.044278851738667 T T T
 10.196403672113849 8.660825357588102 1.533179104175321 T T T
 10.985849055166202 4.063819118578789 4.822954422637513 T T T
 5.286680939091411 8.661138892445198 3.751997956813901 T T T
 13.912478866386497 4.485631285284113 5.089946058651008 T T T
 2.355733243820355 9.074903575301919 3.481216209288507 T T T
 3.821207091455883 8.868021233873559 3.616607083051204 T T T
 6.608431164095931 7.868889254907195 3.571661035450268 T T T
 4.261064064885540 7.962199180847521 4.860889757672913 T T T
 4.317591405820106 10.016952985276045 4.335009417797235 T T T
 3.260516158565292 5.716897741849037 6.365219205838168 T T T
 2.795590217250012 8.169081522275881 4.725498883910216 T T T
 4.186347418924560 6.197117633791515 4.784523619007736 T T T
 1.841865829285822 5.874445377266978 5.529863808591466 T T T
 3.291974531614233 9.318013273678368 5.443901218656247 T T T
 12.954742265805411 7.765900870503023 2.738883150485596 T T T
 13.417483798708151 5.632298750817497 4.373344694407443 T T T
 12.486182860289764 7.044212934234546 5.262645436683999 T T T
 11.954168893098004 5.421392667464835 4.239848876400695 T T T
 12.030864126811899 8.253256882008850 4.313240949716173 T T T
 14.371208186672341 7.926934895826399 3.568979769726193 T T T
 3.317043499499857 3.180799097849567 5.839338865962491 T T T
 2.852117558184577 1.042130429848418 4.199618544034538 T T T
 3.784848565721123 2.454581774969283 3.311524035863734 T T T
 4.242874759859126 3.661018989792045 4.258643279132059 T T T
 4.679410150635997 4.115538391401817 6.902467852441539 T T T
 4.220186342057076 4.716645078722085 7.989807974473413 T T T
 1.866934797171446 4.328083649866171 5.925301455897710 T T T
 4.211416386810184 4.650755906390708 5.179961266313979 T T T
 10.656787540031834 9.258961542646873 0.446235173161425 T T T
 11.591699736347433 8.706830441121634 1.677101037491318 T T T
 9.063292530607150 7.868732487478647 2.462251609130978 T T T
 8.596399767189970 8.266482484920090 1.120516911294808 T T T
 7.463288625683271 7.474389614810635 2.049589416250464 T T T
 5.467167091947787 8.088080264027905 0.439732350926069 T T T
 8.123482670911423 7.590799632185144 -0.494392663318495 T T T
 6.066821754717772 6.501557705292631 2.153560198948921 T T T
 9.056783635107955 8.864618669978860 0.033572980280911 T T T
 14.851391114258382 0.123261729324418 9.155344694732825 T T T
 12.983177953746253 -0.598426206944059 7.396513186803526 T T T
 3.146709184649878 6.783387529399837 0.412690745492427 T T T
 4.079566790261465 10.101913590673689 0.938318588192370 T T T
 3.605932993228799 6.182280842079569 -0.674649376539447 T T T
 1.730369861857990 8.528428220229449 0.996316477122579 T T T
 4.537592984399469 6.717498357068459 1.885437831460695 T T T
 11.594558256071856 -0.663201296963471 5.919143056236293 T T T
 9.741726982672233 1.518269687677376 5.077502351912321 T T T
 11.062544288880098 2.304830884694811 4.896346495952990 T T T
 12.089375584580772 1.611277372922375 3.785572424875006 T T T
 12.063117661587505 0.058486639305006 3.395380770037891 T T T
 2.814703856249193 4.661647455675674 -0.433568614484862 T T T
 3.288337653281859 3.990427755841801 1.179399350246954 T T T
 12.449163960776350 4.274725201931451 4.956450240644260 T T T
 9.665031748958338 3.277257921561354 5.004110278596844 T T T
 12.192468208522563 5.514714080188190 7.634369462197184 T T T
 10.663205148651173 5.295235635900103 7.369629097885392 T T T
 13.013253723574284 1.123921361416548 2.211214625644430 T T T
 11.287631782034996 3.198340301646044 1.218205036708195 T T T
 15.362450651977760 2.697406731860789 2.153216736714221 T T T
 10.691863044659012 2.583704409788918 3.893336207518860 T T T
 14.888816854945095 3.368626431694661 0.540248771982404 T T T
 10.805796367624014 3.500490063970084 8.135451016878456 T T T
 11.532274163294410 5.398304062813681 10.178351541766144 T T T
 10.339636935122940 3.105332616401045 6.792728757873212 T T T
 9.677781098190907 3.219034938472915 9.335203081196275 T T T
 8.810373875251550 2.885854172112958 6.527988393561420 T T T
 8.148518038319517 2.999556494184828 9.070462716884482 T T T
 8.606544232457521 4.205993709007591 10.017581960152807 T T T
 10.003011103423020 5.178825618525594 9.913611177454351 T T T
 8.137197915925462 4.783668170956556 4.288295124321405 T T T
