boundary p p p
units metal
atom_modify map yes
neighbor 2.0 bin
neigh_modify every 1 delay 0 check yes

read_data coo_out2

pair_style hybrid/overlay nn/intel lj/cut 3.0
pair_coeff * * nn/intel potentialshort Ta P O
pair_coeff * * lj/cut 0.0 0.0 0.0
