make_exsolution.py
1.0000000000000000
 9.550333770205121  0.000000000000000  0.000000000000000 
 0.000000000000000  9.550333770205121  0.000000000000000 
 0.000000000000000  0.000000000000000  11.650362009543718 
 Ta  P  O 
 16  8  64 
Selective dynamics
Cartesian
 0.002762728052511 4.782272363842599 2.920207256337876 T T T
 4.784816748011578 0.001380172737615 8.744407069830457 T T T
 0.004024946628525 0.006576801013494 5.829203125918752 T T T
 4.775333189652501 4.781366369291082 0.000545753408257 T T T
 0.008519802215957 0.000754634596592 10.021308347628160 T T T
 0.004946057945312 0.002224951800963 1.639015164896428 T T T
 4.775853066948360 4.778561355750948 4.188025611449301 T T T
 4.784029953232895 4.783227044709465 7.464650187269616 T T T
 2.173001382483674 2.169940497435307 0.002535207266001 T T T
 7.388845230240275 7.387067538685475 0.008924376535716 T T T
 2.168746139645597 7.391427987847416 0.002945669287850 T T T
 7.387810629751512 2.167982658230497 0.007168695788623 T T T
 6.942974358580558 6.939758523571389 5.829173954817524 T T T
 2.618474744270170 2.616979134892131 5.826657299817091 T T T
 6.942524593187815 2.614957953040381 5.825819747831798 T T T
 2.615636106814577 6.945506882834180 5.830323617825417 T T T
 2.586349194881743 7.357987753764585 2.920927525497024 T T T
 6.978623748170848 2.195266833406793 2.914972595698605 T T T
 7.360713979045760 6.974180068235150 8.745008404151484 T T T
 2.198594042032840 2.585896666796983 8.737963351446997 T T T
 2.590744764855641 2.196197161378383 2.921040867191057 T T T
 6.973484392410801 7.358796232006816 2.922001700197023 T T T
 7.366313253523498 2.585029465728078 8.744297109263885 T T T
 2.195675334928746 6.973172248708664 8.737846678106408 T T T
 6.072765363528669 -1.287386764616178 8.744707736990971 T T T
 6.075565000767538 1.293204819232846 8.744352089547171 T T T
 3.490246041470162 -1.287890674379421 8.741126873968433 T T T
 3.491705395022209 1.293638419767299 8.741185210638726 T T T
 6.086313688881545 1.084681415484056 10.200968887581400 T T T
 6.086830989125927 -1.080943029391016 10.201846727954946 T T T
 3.474167286068087 3.475653433363195 0.001540480337129 T T T
 3.472039664649049 6.086397178569249 0.001745711348053 T T T
 6.082089209946387 6.084216953988278 0.004735064971986 T T T
 6.081571909702006 3.474674513760790 0.003857224598440 T T T
 4.779681571442698 4.782296707000274 -2.092583034432923 T T T
 4.775593128300430 4.779963862521015 2.094285682428779 T T T
 -1.287043324870905 6.070534297924707 2.921104478267449 T T T
 1.294555961467127 6.070130058803592 2.920567390917450 T T T
 -1.284473646990881 3.488769598624696 2.917589926018240 T T T
 1.296753746454076 3.489234762610491 2.920624061764467 T T T
 -1.302298341786026 5.861015443706994 4.374690605577699 T T T
 -1.079362905956168 6.084669951264036 1.464565816436796 T T T
 2.408534393151505 2.601437900844557 7.282310325632044 T T T
 2.185797712258257 2.377918582116145 10.195430284128358 T T T
 1.103556922124399 1.293325650696788 9.379635849537578 T T T
 2.405655720871661 6.959339565771423 7.284085147965913 T T T
 2.600992650848160 7.151747318299382 4.375625571661221 T T T
 3.699833030023736 5.864366963771822 6.647486902547517 T T T
 3.695744586881469 5.862034119292564 5.009174614637359 T T T
 1.309830526721551 8.251208727026397 5.829763371872085 T T T
 4.779305232697567 6.942632703202785 5.829748786321471 T T T
 7.374779604643017 7.180623803460312 10.202147395115460 T T T
 7.151844168813159 6.956969295903269 7.287091179484504 T T T
 6.072371966139327 5.878703556472307 8.104829295710550 T T T
 6.960574170679331 2.405112393223587 4.370396171765202 T T T
 7.154418923355657 2.599993709384229 7.285058428547842 T T T
 5.863277273210355 3.699092498874923 6.645234967550707 T T T
 5.859188830068088 3.696759654395664 5.006922679640549 T T T
 8.248441655010730 1.310767377026937 5.827511436875275 T T T
 4.780499668728993 2.615968543966256 5.826238523824445 T T T
 0.006732930080635 0.001489793198777 11.655342761034152 T T T
 1.088632970930777 -1.079075573880557 10.837308013229865 T T T
 1.090760592349816 1.085347566015949 10.837102782218940 T T T
 -1.076484368874445 -1.081255798461527 10.840297366853797 T T T
 -1.077001669118826 1.084368646413544 10.839419526480251 T T T
 2.377547667263670 7.374707870806001 1.461936597392437 T T T
 3.681101130915051 6.068274554757766 3.554476568473163 T T T
 1.086846098795455 -1.078340415278372 0.820980417092139 T T T
 -1.078271241009767 -1.080520639859342 0.823969770716072 T T T
 -1.078788541254148 1.085103805015730 0.823091930342526 T T T
 1.088973720214493 1.086082724618135 0.820775186081215 T T T
 -1.283381982044481 1.098745892603878 2.276993880297517 T T T
 2.604609754562905 2.406588148135257 4.373849083504074 T T T
 2.381873073669658 2.183068829406845 1.461788037228529 T T T
 3.683298915902001 3.487379258564665 3.554533239320179 T T T
 2.170873761064636 0.005517357538801 0.002740438276926 T T T
 6.958229375495679 7.149277377789103 4.375587827507274 T T T
 5.874668729679581 6.068678793878882 3.555013655823162 T T T
 6.976054070290824 9.552198417809365 2.918487147947814 T T T
 2.182210737287172 7.182300118278039 -1.454784831074730 T T T
 3.701252348751533 3.700103089800798 6.645653743543353 T T T
 1.311249845449348 1.311777967952812 5.827930212867922 T T T
 2.407075039599458 4.795075691800397 7.282251988961749 T T T
 -1.301667232498019 -1.301999222810119 5.829188540368138 T T T
 -1.089997785026549 1.295803133370786 7.286750117591319 T T T
 -1.079249096912542 1.087279729621995 2.918185910853688 T T T
 7.377061941637505 2.376506061979287 10.200913907298112 T T T
 5.863502155906726 5.861492784140427 6.646912071043570 T T T
