randspg
1.00000
    9.550333770205121    0.000000000000000    0.000000000000000
    0.000000000000000    9.550333770205121    0.000000000000000
    0.000000000000000    0.000000000000000   11.650362009543718
Ta P
   16    8
Selective dynamics
Direct
  0.000000000000000  0.500000000000000  0.250000000000000 T T T
  0.500000000000000  0.000000000000000  0.750000000000000 T T T
  0.000000000000000  0.000000000000000  0.500000000000000 T T T
  0.500000000000000  0.500000000000000  0.000000000000000 T T T
  0.000000000000000  0.000000000000000  0.859462279259282 T T T
  0.000000000000000  0.000000000000000  0.140537720740718 T T T
  0.500000000000000  0.500000000000000  0.359462279259282 T T T
  0.500000000000000  0.500000000000000  0.640537720740718 T T T
  0.226551592677645  0.226551592677645  0.000000000000000 T T T
  0.773448407322355  0.773448407322355  0.000000000000000 T T T
  0.226551592677645  0.773448407322355  0.000000000000000 T T T
  0.773448407322355  0.226551592677645  0.000000000000000 T T T
  0.726551592677645  0.726551592677645  0.500000000000000 T T T
  0.273448407322355  0.273448407322355  0.500000000000000 T T T
  0.726551592677645  0.273448407322355  0.500000000000000 T T T
  0.273448407322355  0.726551592677645  0.500000000000000 T T T
  0.270308764036311  0.770308764036311  0.250000000000000 T T T
  0.729691235963689  0.229691235963689  0.250000000000000 T T T
  0.770308764036311  0.729691235963689  0.750000000000000 T T T
  0.229691235963689  0.270308764036311  0.750000000000000 T T T
  0.270308764036311  0.229691235963689  0.250000000000000 T T T
  0.729691235963689  0.770308764036311  0.250000000000000 T T T
  0.770308764036311  0.270308764036311  0.750000000000000 T T T
  0.229691235963689  0.729691235963689  0.750000000000000 T T T
