(Converted from LAMMPS) LAMMPS data file via write_data, version 7 Feb 2024, timestep = 712, units = metal
 1.0
    11.21087284      0.00000000      0.00000000 
    -5.59745033      9.70830727      0.00000000 
     0.00900090     -0.00206729      8.73976652 
S Mg O
 12 8 48
Cartesian
     0.03466763      8.49596594      0.89291952 
    -2.95501481      6.38532928      8.04393495 
     3.52322083      3.96613585      7.73951938 
    -3.03245412      5.72893697      5.12540189 
    -0.10794027      8.64821349      3.86949911 
     4.14704121      2.79220756      5.06460799 
    -3.41311512      9.50375929      1.99715508 
    -0.77409444      4.34460560      3.75747187 
     3.97467520      8.93419371      1.77154809 
     8.62426268      0.19216954      6.38160357 
     6.27315459      8.56809950      6.19006473 
     1.27199678      2.23521640      6.88020563 
    -0.19876462      0.93920829      0.04915343 
    -0.18264272      0.92648182      4.03573492 
     2.32617096      6.60583519      2.58999959 
     6.28086556      6.34819292      2.23004195 
     2.18499232      3.27527811      2.18179373 
    -1.81915324      9.47881276      6.82161759 
    -1.73550538      3.46310845      6.88238992 
     4.07968842      6.66445976      5.60655745 
     2.37096751      1.27433425      1.97466161 
    -4.16615766      9.66485451      0.72363374 
    -4.08521859      8.17707076      2.08852670 
     1.47466235      0.05960192      3.27736684 
     3.26609227      8.46685212      6.04134417 
     8.60689247      1.68009264      6.48677452 
     9.53184005      0.35136239      7.55326918 
     9.39816795      0.49077705      5.14617949 
     5.06401336      7.94983039      2.03037843 
     3.10017391      7.86257408      1.21636291 
     4.06184885      9.42452698      3.17334856 
     4.51224330      8.87260001      0.38586980 
     3.01210566      3.71321080      0.38323547 
     3.69202279      5.25489030      7.00553600 
     2.28458590      3.19300869      7.41705003 
     3.93780283      3.40995271      6.41205924 
     3.31069727      2.99241766      3.84366481 
     0.49820843      3.91229388      3.10685580 
     0.66906372      2.33906479      1.22290790 
     1.35452592      2.18640175      3.66547320 
    -5.09994251      8.86864223      4.74171646 
     0.72770735      1.93827251      5.52681583 
    -3.51658951      8.90299851      5.89210342 
     5.59502103      7.36281405      6.74445961 
     5.90803783      9.16382190      7.50466040 
     1.10425630      7.80449802      3.66337752 
    -0.84458805      9.01707290      5.11107888 
    -0.10501945      8.62226456      2.37522498 
    -1.85237434      3.47716960      3.20303870 
     7.35684631      5.98262881      3.90517605 
     8.09055662      4.36364108      5.71784798 
    -1.91204455      5.12211335      4.34087670 
    -3.02278069      6.13437798      6.56785741 
    -2.30176693      5.04398442      8.00928183 
     0.28078582      3.34713039      6.82976306 
     9.66136511      2.41800782      8.59767219 
    -0.78224075      3.75625075      5.12600979 
    -0.71618186      8.89631448      8.41457929 
     2.35360714      1.20689197      6.93330386 
    -2.36688697      7.68656810      7.60012508 
     4.06863559      1.48100614      5.77503728 
     7.41744251      6.37545639      0.54775330 
     1.10643752      7.52902612      1.26720854 
     1.51039092      5.98607858      4.32730518 
     3.40209793      5.64546949      4.00192870 
     4.27134726      6.10820046      2.31648919 
     2.30675305      6.79362368      6.56350659 
     5.25245323      6.54636554      3.96125749 
