randspg
1.00000
   11.210082667039837    0.000000000000000    0.000000000000000
   -5.605041310286262    9.708216381594069    0.000000000000000
    0.000000000000000    0.000000000000000    8.756744498152429
S Mg
   12    8
Selective dynamics
Direct
  0.500000000000000  0.000000000000000  0.000000000000000 T T T
  0.000000000000000  0.500000000000000  0.000000000000000 T T T
  0.500000000000000  0.500000000000000  0.000000000000000 T T T
  0.000000000000000  0.500000000000000  0.500000000000000 T T T
  0.500000000000000  0.000000000000000  0.500000000000000 T T T
  0.500000000000000  0.500000000000000  0.500000000000000 T T T
  0.194634850835007  0.000000000000000  0.250000000000000 T T T
  0.000000000000000  0.194634850835007  0.250000000000000 T T T
  0.805365149164993  0.805365149164993  0.250000000000000 T T T
  0.805365149164993  0.000000000000000  0.750000000000000 T T T
  0.000000000000000  0.805365149164993  0.750000000000000 T T T
  0.194634850835007  0.194634850835007  0.750000000000000 T T T
  0.000000000000000  0.000000000000000  0.000000000000000 T T T
  0.000000000000000  0.000000000000000  0.500000000000000 T T T
  0.685985798283845  0.000000000000000  0.250000000000000 T T T
  0.000000000000000  0.685985798283845  0.250000000000000 T T T
  0.314014201716155  0.314014201716155  0.250000000000000 T T T
  0.314014201716155  0.000000000000000  0.750000000000000 T T T
  0.000000000000000  0.314014201716155  0.750000000000000 T T T
  0.685985798283845  0.685985798283845  0.750000000000000 T T T
