pair_coeff 1 48 lj/cut 3.0 1.3274390900291055 6.0
pair_coeff 1 58 lj/cut 3.0 1.3274390900291055 6.0
pair_coeff 1 63 lj/cut 3.0 1.3274390900291055 6.0
pair_coeff 1 67 lj/cut 3.0 1.3274390900291055 6.0
pair_coeff 2 53 lj/cut 3.0 1.3274390900291055 6.0
pair_coeff 2 54 lj/cut 3.0 1.3274390900291055 6.0
pair_coeff 2 60 lj/cut 3.0 1.3274390900291055 6.0
pair_coeff 2 62 lj/cut 3.0 1.3274390900291055 6.0
pair_coeff 3 33 lj/cut 3.0 1.3274390900291055 6.0
pair_coeff 3 34 lj/cut 3.0 1.3274390900291055 6.0
pair_coeff 3 35 lj/cut 3.0 1.3274390900291055 6.0
pair_coeff 3 36 lj/cut 3.0 1.3274390900291055 6.0
pair_coeff 4 50 lj/cut 3.0 1.3274390900291055 6.0
pair_coeff 4 51 lj/cut 3.0 1.3274390900291055 6.0
pair_coeff 4 52 lj/cut 3.0 1.3274390900291055 6.0
pair_coeff 4 53 lj/cut 3.0 1.3274390900291055 6.0
pair_coeff 5 46 lj/cut 3.0 1.3274390900291055 6.0
pair_coeff 5 47 lj/cut 3.0 1.3274390900291055 6.0
pair_coeff 5 48 lj/cut 3.0 1.3274390900291055 6.0
pair_coeff 5 49 lj/cut 3.0 1.3274390900291055 6.0
pair_coeff 6 36 lj/cut 3.0 1.3274390900291055 6.0
pair_coeff 6 37 lj/cut 3.0 1.3274390900291055 6.0
pair_coeff 6 61 lj/cut 3.0 1.3274390900291055 6.0
pair_coeff 6 64 lj/cut 3.0 1.3274390900291055 6.0
pair_coeff 7 21 lj/cut 3.0 1.3274390900291055 6.0
pair_coeff 7 22 lj/cut 3.0 1.3274390900291055 6.0
pair_coeff 7 23 lj/cut 3.0 1.3274390900291055 6.0
pair_coeff 7 24 lj/cut 3.0 1.3274390900291055 6.0
pair_coeff 8 38 lj/cut 3.0 1.3274390900291055 6.0
pair_coeff 8 49 lj/cut 3.0 1.3274390900291055 6.0
pair_coeff 8 52 lj/cut 3.0 1.3274390900291055 6.0
pair_coeff 8 57 lj/cut 3.0 1.3274390900291055 6.0
pair_coeff 9 29 lj/cut 3.0 1.3274390900291055 6.0
pair_coeff 9 30 lj/cut 3.0 1.3274390900291055 6.0
pair_coeff 9 31 lj/cut 3.0 1.3274390900291055 6.0
pair_coeff 9 32 lj/cut 3.0 1.3274390900291055 6.0
pair_coeff 10 25 lj/cut 3.0 1.3274390900291055 6.0
pair_coeff 10 26 lj/cut 3.0 1.3274390900291055 6.0
pair_coeff 10 27 lj/cut 3.0 1.3274390900291055 6.0
pair_coeff 10 28 lj/cut 3.0 1.3274390900291055 6.0
pair_coeff 11 41 lj/cut 3.0 1.3274390900291055 6.0
pair_coeff 11 43 lj/cut 3.0 1.3274390900291055 6.0
pair_coeff 11 44 lj/cut 3.0 1.3274390900291055 6.0
pair_coeff 11 45 lj/cut 3.0 1.3274390900291055 6.0
pair_coeff 12 35 lj/cut 3.0 1.3274390900291055 6.0
pair_coeff 12 42 lj/cut 3.0 1.3274390900291055 6.0
pair_coeff 12 55 lj/cut 3.0 1.3274390900291055 6.0
pair_coeff 12 59 lj/cut 3.0 1.3274390900291055 6.0
pair_coeff 13 22 lj/cut 3.0 1.7996154106434854 6.0
pair_coeff 13 27 lj/cut 3.0 1.7996154106434854 6.0
pair_coeff 13 32 lj/cut 3.0 1.7996154106434854 6.0
pair_coeff 13 39 lj/cut 3.0 1.7996154106434854 6.0
pair_coeff 13 45 lj/cut 3.0 1.7996154106434854 6.0
pair_coeff 13 56 lj/cut 3.0 1.7996154106434854 6.0
pair_coeff 14 24 lj/cut 3.0 1.7996154106434854 6.0
pair_coeff 14 28 lj/cut 3.0 1.7996154106434854 6.0
pair_coeff 14 31 lj/cut 3.0 1.7996154106434854 6.0
pair_coeff 14 40 lj/cut 3.0 1.7996154106434854 6.0
pair_coeff 14 41 lj/cut 3.0 1.7996154106434854 6.0
pair_coeff 14 42 lj/cut 3.0 1.7996154106434854 6.0
pair_coeff 15 30 lj/cut 3.0 1.7996154106434854 6.0
pair_coeff 15 46 lj/cut 3.0 1.7996154106434854 6.0
pair_coeff 15 63 lj/cut 3.0 1.7996154106434854 6.0
pair_coeff 15 64 lj/cut 3.0 1.7996154106434854 6.0
pair_coeff 15 65 lj/cut 3.0 1.7996154106434854 6.0
pair_coeff 15 66 lj/cut 3.0 1.7996154106434854 6.0
pair_coeff 16 23 lj/cut 3.0 1.7996154106434854 6.0
pair_coeff 16 29 lj/cut 3.0 1.7996154106434854 6.0
pair_coeff 16 50 lj/cut 3.0 1.7996154106434854 6.0
pair_coeff 16 62 lj/cut 3.0 1.7996154106434854 6.0
pair_coeff 16 66 lj/cut 3.0 1.7996154106434854 6.0
pair_coeff 16 68 lj/cut 3.0 1.7996154106434854 6.0
pair_coeff 17 21 lj/cut 3.0 1.7996154106434854 6.0
pair_coeff 17 33 lj/cut 3.0 1.7996154106434854 6.0
pair_coeff 17 37 lj/cut 3.0 1.7996154106434854 6.0
pair_coeff 17 38 lj/cut 3.0 1.7996154106434854 6.0
pair_coeff 17 39 lj/cut 3.0 1.7996154106434854 6.0
pair_coeff 17 40 lj/cut 3.0 1.7996154106434854 6.0
pair_coeff 18 43 lj/cut 3.0 1.7996154106434854 6.0
pair_coeff 18 47 lj/cut 3.0 1.7996154106434854 6.0
pair_coeff 18 58 lj/cut 3.0 1.7996154106434854 6.0
pair_coeff 18 59 lj/cut 3.0 1.7996154106434854 6.0
pair_coeff 18 60 lj/cut 3.0 1.7996154106434854 6.0
pair_coeff 18 61 lj/cut 3.0 1.7996154106434854 6.0
pair_coeff 19 26 lj/cut 3.0 1.7996154106434854 6.0
pair_coeff 19 51 lj/cut 3.0 1.7996154106434854 6.0
pair_coeff 19 54 lj/cut 3.0 1.7996154106434854 6.0
pair_coeff 19 55 lj/cut 3.0 1.7996154106434854 6.0
pair_coeff 19 56 lj/cut 3.0 1.7996154106434854 6.0
pair_coeff 19 57 lj/cut 3.0 1.7996154106434854 6.0
pair_coeff 20 25 lj/cut 3.0 1.7996154106434854 6.0
pair_coeff 20 34 lj/cut 3.0 1.7996154106434854 6.0
pair_coeff 20 44 lj/cut 3.0 1.7996154106434854 6.0
pair_coeff 20 65 lj/cut 3.0 1.7996154106434854 6.0
pair_coeff 20 67 lj/cut 3.0 1.7996154106434854 6.0
pair_coeff 20 68 lj/cut 3.0 1.7996154106434854 6.0
