make_exsolution.py
1.0000000000000000
 11.210082667039837  0.000000000000000  0.000000000000000 
 -5.605041310286262  9.708216381594069  0.000000000000000 
 0.000000000000000  0.000000000000000  8.756744498152429 
 S  Mg  O 
 12  8  48 
Selective dynamics
Cartesian
 5.605740243190166 0.006734038866238 0.009939321375705 T T T
 -2.793189406168922 4.861645791828997 0.002564712438494 T T T
 2.808297452989615 4.857481209722450 0.002771458271120 T T T
 -2.801151694286860 4.860006200183091 4.383405984208320 T T T
 5.614287720526075 0.007680043508137 4.386494103569345 T T T
 2.804759617636840 4.858254671268019 4.387849845044269 T T T
 2.185157234415666 0.009176170329602 2.191764899892967 T T T
 -1.086054410980482 1.895335350884449 2.198927674763856 T T T
 4.523857817021042 7.819673879289928 2.197673192724137 T T T
 9.036071764893711 0.004221303328103 6.573611621701908 T T T
 -4.509838519349040 7.828318208030447 6.571343426085660 T T T
 1.091318035143246 1.894297422775632 6.568218105528632 T T T
 0.009559501518661 0.005179646092233 0.009886340409791 T T T
 0.009868918475641 0.003766963898899 4.380357362874035 T T T
 7.696219526881460 0.002453191821580 2.196976496724738 T T T
 -3.839464070753820 6.662185344033986 2.194531442193770 T T T
 1.767665661067244 3.054087478759545 2.191755793340713 T T T
 3.523506724637239 0.005096210577845 6.573443365723830 T T T
 -1.758816174206822 3.055212229567222 6.571487707346049 T T T
 3.849320117153414 6.667640000178720 6.568956823322371 T T T
 1.976411447741455 1.531631824544573 2.191760346616840 T T T
 1.097358367967163 0.007177908210917 1.100825620151379 T T T
 1.975367236974054 -1.518427433615240 2.193148171043369 T T T
 1.097513076445653 0.006471567114250 3.286061131383501 T T T
 9.245216596166694 -1.518177539043623 6.571284222512140 T T T
 9.243669128863363 1.529716766447663 6.572549664523978 T T T
 10.127856966726103 0.004700474710168 7.670121230132064 T T T
 10.128011675204593 0.003994133613501 5.476984492287972 T T T
 5.947238206653529 7.240929611661957 2.196102317458954 T T T
 3.307518016808120 8.765171726352788 2.197324844724437 T T T
 5.069384046125129 8.765828612391449 3.289015277799086 T T T
 5.069229337646639 8.766534953488115 1.103779766566964 T T T
 2.287981557028429 3.955784344240997 1.097263625805917 T T T
 3.328808785071515 5.762560604950584 -1.092508108279469 T T T
 1.949807744066431 3.375889316249041 -1.092877467176338 T T T
 2.806528535313228 4.857867940495234 -2.183061597418519 T T T
 2.286212639352042 3.956171075013782 3.289802819192491 T T T
 0.340805625043381 2.474711414821997 2.195341734052284 T T T
 0.888612581292953 1.529633562425889 1.100821066875252 T T T
 0.888767289771442 1.528927221329222 3.286056578107374 T T T
 0.552535854706431 -0.938065604832361 5.475850394479847 T T T
 0.550593476809443 0.949032193337265 5.474287734201333 T T T
 -3.295686552499032 8.770815400101181 6.572393395904745 T T T
 -5.935300534617731 7.247979104104584 6.570150124704016 T T T
 -5.052660164058320 8.770857117858373 7.668987132323940 T T T
 6.655253623703768 0.005066617664858 3.291735300147042 T T T
 4.568897222581658 0.006388127042991 5.479968734646588 T T T
 5.610013981858121 0.007207041187187 2.198216712472525 T T T
 7.869157988292715 0.951507697196293 3.292710889166600 T T T
 -3.320307882520340 5.761095772108538 3.288968713201045 T T T
 -2.279983934246841 3.957609214875156 5.477446845777184 T T T
 -1.943603052633671 3.377670775533770 3.291166829486088 T T T
 -2.797170550227891 4.860825996006044 6.571357597399621 T T T
 -2.276002790187872 3.958429010698110 7.665398458968486 T T T
 -0.333749069531788 2.474754826171427 6.569852906437340 T T T
 -0.874628336344080 1.530195937829727 7.669059272954135 T T T
 -1.422435292593652 2.475273790225835 4.385207691054952 T T T
 4.564623483913703 0.005915124722042 7.670063592625983 T T T
 2.307412379890243 0.949696816676739 6.570830735626231 T T T
 3.167679314377290 -2.420737189593613 7.666376288157377 T T T
 3.164133171137039 2.431675440922932 5.480646605384050 T T T
 -3.316326738461371 5.761915567931492 1.098548077316132 T T T
 6.650979885035813 0.004593615343909 1.103457909050222 T T T
 8.053010227402282 -2.423754259252235 3.292413170884504 T T T
 8.575290477160568 -1.519061594796884 4.382966660023555 T T T
 10.335939716726870 -1.521788922869251 2.195753969459254 T T T
 1.925009525028659 8.191295210319513 7.667820321425253 T T T
 5.609969356719716 6.664912672106353 4.381744132758071 T T T
