make_exsolution.py
1.0000000000000000
 11.210082667039837  0.000000000000000  0.000000000000000 
 -5.605041310286262  9.708216381594069  0.000000000000000 
 0.000000000000000  0.000000000000000  8.756744498152429 
 S  Mg 
 12  8 
Selective dynamics
Direct
 0.500409168151311 0.000693643260672 0.001135047548527 T T T
 0.001220605176734 0.500776414609614 0.000292884237862 T T T
 0.500689039342176 0.500347439611236 0.000316494134516 T T T
 0.000425882510056 0.500607527598709 0.500574840927832 T T T
 0.501220371211774 0.000791086972752 0.500927497027559 T T T
 0.500413280704571 0.500427110429764 0.501082319573222 T T T
 0.195400441179327 0.000945196312991 0.250294490190436 T T T
 0.000733086298601 0.195230027472177 0.251112462539909 T T T
 0.806287418185374 0.805469673514421 0.250969203587911 T T T
 0.806283878893088 0.000434817598020 0.750691266953017 T T T
 0.000878056002989 0.806360087201214 0.750432244251518 T T T
 0.194913027937588 0.195123115134419 0.750075339861115 T T T
 0.001119525336302 0.000533532204953 0.001128997244567 T T T
 0.001074369961614 0.000388018123086 0.500226695411547 T T T
 0.686670750472249 0.000252692330409 0.250889642513639 T T T
 0.000620014139349 0.686241950340632 0.250610422932494 T T T
 0.314979290000611 0.314587907676824 0.250293450243198 T T T
 0.314578324523734 0.000524937885347 0.750672052508869 T T T
 0.000455966237548 0.314703763232929 0.750448720838270 T T T
 0.686782075878585 0.686803810102542 0.750159699727261 T T T
