(Converted from LAMMPS) LAMMPS data file via write_data, version 7 Feb 2024, timestep = 5244, units = metal
 1.0
     9.49744268      0.00000000      0.00000000 
    -0.47540732      9.51674014      0.00000000 
    -1.41622670     -0.00206777     11.70472254 
 Ta P O
 16 8 64
Cartesian
     8.61636834      4.50868306      2.64855085 
     3.70939820      9.36739451      9.67327369 
     8.29499390      0.04874059      5.77097213 
     3.13906494      4.66066810     11.26110279 
    -1.03760598      0.04619482      9.61727953 
    -0.28537786      9.08695492      2.49902900 
     4.08845686      4.95022111      3.30234848 
     3.29548948      5.27363708      7.56796123 
     1.48236611      1.52301762     11.61877143 
     7.18223136      7.28407169      0.36600442 
     1.82974204      7.32779968      0.10348994 
     6.10079004      2.32399939     11.49418804 
     5.32743516      7.26064835      5.92942674 
     0.92081327      3.04531232      5.70278244 
     6.00320835      3.77790583      5.33685845 
     0.37665630      6.44119698      5.53973600 
     2.36328699      7.57048932      3.21757240 
     7.04808439      1.66903464      3.02027655 
     5.86824881      6.81062229      8.91208566 
     1.54073231      1.59785392      8.50718484 
     2.16295075      2.20807034      2.84052881 
     6.37031304      7.34909597      3.13150793 
     6.12658576      2.18843145      8.23616600 
     1.04016305      7.47341855      8.76827185 
     4.92518630      8.03057019      8.97046405 
     5.29838463      0.91244560      8.48862561 
     2.43552147      7.98229586      9.18983810 
     2.85216797      0.78996392      8.61979943 
     4.55107527      1.40416418     10.77745574 
     4.65258290      8.61088578     11.19347843 
     5.44172715      8.03520342      4.15292763 
     5.91002436      7.81147719      1.73365153 
     5.75902867      5.93095417      3.12829193 
     7.78759027      7.96018066      3.19454236 
     2.03107358      2.16066484      4.37874001 
     3.08965134      1.47727605      1.84448845 
     2.79506200      3.61534378      2.72805556 
     0.90336871      1.38022970      2.48848361 
     6.44275118      7.12216901      7.51438674 
     3.74520150      7.08793239      7.03861639 
     4.19807198      6.07600645      4.88142819 
     5.95015654      9.08625497      6.15322278 
     6.37712417      5.63776551      5.75426456 
     1.70518913      7.51450714      4.61550458 
     2.82331461      7.64872560      1.74289099 
     2.48225749      6.03013174      3.17056134 
     1.57229395      8.88364434      3.02880703 
     4.30969028      2.86202704      0.17331047 
     3.18659514      5.93463322      0.08952664 
     4.20516713      6.22503253     11.53152232 
     4.90072383      3.84479619     11.34708688 
     2.74096879      4.79680038      9.36636458 
     4.71279231      4.67321492      1.48859931 
     8.26330005      2.62149448      2.97121859 
     8.10037778      5.92799657      1.41908678 
     7.40319995      4.44350391      4.16329916 
    -0.29901610      5.99076190      3.77140441 
     0.29562455      3.83140864      4.04074947 
     8.41063093      3.62164623      0.92795894 
     6.06932726      2.52623268      3.85163308 
     6.47909419      2.57900034      6.78743493 
     4.75695870      4.30596202      6.73311819 
     4.18220240      3.59696118      4.68726116 
    -1.05322729      7.73706875      5.74749702 
    -0.64779701      1.90120814      5.76280764 
     0.13083231      0.04212807      4.38239212 
     7.66825306      9.39452478      7.70225416 
     7.36587772      0.69708315      4.17781434 
     6.39475752      6.64164597     10.35135986 
     7.99278806      8.93288026      0.99519999 
     2.12596732      5.82827706      6.11927678 
     2.41059749      3.76562821      6.72125208 
     4.84667426      5.67961460      8.66670102 
     0.55589134      6.66113588      9.98791804 
    -1.07838393      8.17211648     10.89288465 
     0.42212381      7.64370440      1.40575305 
     1.14060462      9.10509869     11.53018611 
     6.84966305      1.65851435      1.48803446 
     6.26687962      2.83678307      9.62813021 
     6.98076937      0.79434907     10.67612173 
     0.54778878      6.90878669      7.41807963 
     0.02841165      4.67471314      6.26614212 
     1.75573289      2.30397183      9.86274569 
    -0.31642378      0.98604912     11.14138732 
     1.87842369      3.18576922      0.01632899 
     0.01704524      8.61427065      8.94203558 
     1.42419842      1.66182100      6.96895621 
     0.03284998      1.42450423      8.79886278 
