pair_coeff 1 37 lj/cut 3.0 1.7274526144741178 6.0
pair_coeff 1 38 lj/cut 3.0 1.7274526144741178 6.0
pair_coeff 1 39 lj/cut 3.0 1.7274526144741178 6.0
pair_coeff 1 40 lj/cut 3.0 1.7274526144741178 6.0
pair_coeff 1 41 lj/cut 3.0 1.7274526144741178 6.0
pair_coeff 1 42 lj/cut 3.0 1.7274526144741178 6.0
pair_coeff 2 25 lj/cut 3.0 1.7274526144741178 6.0
pair_coeff 2 26 lj/cut 3.0 1.7274526144741178 6.0
pair_coeff 2 27 lj/cut 3.0 1.7274526144741178 6.0
pair_coeff 2 28 lj/cut 3.0 1.7274526144741178 6.0
pair_coeff 2 29 lj/cut 3.0 1.7274526144741178 6.0
pair_coeff 2 30 lj/cut 3.0 1.7274526144741178 6.0
pair_coeff 3 50 lj/cut 3.0 1.7274526144741178 6.0
pair_coeff 3 59 lj/cut 3.0 1.7274526144741178 6.0
pair_coeff 3 82 lj/cut 3.0 1.7274526144741178 6.0
pair_coeff 3 84 lj/cut 3.0 1.7274526144741178 6.0
pair_coeff 3 85 lj/cut 3.0 1.7274526144741178 6.0
pair_coeff 3 86 lj/cut 3.0 1.7274526144741178 6.0
pair_coeff 4 31 lj/cut 3.0 1.7274526144741178 6.0
pair_coeff 4 32 lj/cut 3.0 1.7274526144741178 6.0
pair_coeff 4 33 lj/cut 3.0 1.7274526144741178 6.0
pair_coeff 4 34 lj/cut 3.0 1.7274526144741178 6.0
pair_coeff 4 35 lj/cut 3.0 1.7274526144741178 6.0
pair_coeff 4 36 lj/cut 3.0 1.7274526144741178 6.0
pair_coeff 5 45 lj/cut 3.0 1.7274526144741178 6.0
pair_coeff 5 61 lj/cut 3.0 1.7274526144741178 6.0
pair_coeff 5 62 lj/cut 3.0 1.7274526144741178 6.0
pair_coeff 5 63 lj/cut 3.0 1.7274526144741178 6.0
pair_coeff 5 64 lj/cut 3.0 1.7274526144741178 6.0
pair_coeff 5 65 lj/cut 3.0 1.7274526144741178 6.0
pair_coeff 6 61 lj/cut 3.0 1.7274526144741178 6.0
pair_coeff 6 68 lj/cut 3.0 1.7274526144741178 6.0
pair_coeff 6 69 lj/cut 3.0 1.7274526144741178 6.0
pair_coeff 6 70 lj/cut 3.0 1.7274526144741178 6.0
pair_coeff 6 71 lj/cut 3.0 1.7274526144741178 6.0
pair_coeff 6 72 lj/cut 3.0 1.7274526144741178 6.0
pair_coeff 7 36 lj/cut 3.0 1.7274526144741178 6.0
pair_coeff 7 49 lj/cut 3.0 1.7274526144741178 6.0
pair_coeff 7 58 lj/cut 3.0 1.7274526144741178 6.0
pair_coeff 7 67 lj/cut 3.0 1.7274526144741178 6.0
pair_coeff 7 75 lj/cut 3.0 1.7274526144741178 6.0
pair_coeff 7 78 lj/cut 3.0 1.7274526144741178 6.0
pair_coeff 8 35 lj/cut 3.0 1.7274526144741178 6.0
pair_coeff 8 48 lj/cut 3.0 1.7274526144741178 6.0
pair_coeff 8 54 lj/cut 3.0 1.7274526144741178 6.0
pair_coeff 8 57 lj/cut 3.0 1.7274526144741178 6.0
pair_coeff 8 81 lj/cut 3.0 1.7274526144741178 6.0
pair_coeff 8 88 lj/cut 3.0 1.7274526144741178 6.0
pair_coeff 9 31 lj/cut 3.0 1.7274526144741178 6.0
pair_coeff 9 44 lj/cut 3.0 1.7274526144741178 6.0
pair_coeff 9 63 lj/cut 3.0 1.7274526144741178 6.0
pair_coeff 9 71 lj/cut 3.0 1.7274526144741178 6.0
pair_coeff 9 74 lj/cut 3.0 1.7274526144741178 6.0
pair_coeff 9 76 lj/cut 3.0 1.7274526144741178 6.0
pair_coeff 10 30 lj/cut 3.0 1.7274526144741178 6.0
pair_coeff 10 33 lj/cut 3.0 1.7274526144741178 6.0
pair_coeff 10 42 lj/cut 3.0 1.7274526144741178 6.0
pair_coeff 10 52 lj/cut 3.0 1.7274526144741178 6.0
pair_coeff 10 64 lj/cut 3.0 1.7274526144741178 6.0
pair_coeff 10 69 lj/cut 3.0 1.7274526144741178 6.0
pair_coeff 11 32 lj/cut 3.0 1.7274526144741178 6.0
pair_coeff 11 62 lj/cut 3.0 1.7274526144741178 6.0
pair_coeff 11 66 lj/cut 3.0 1.7274526144741178 6.0
pair_coeff 11 68 lj/cut 3.0 1.7274526144741178 6.0
pair_coeff 11 76 lj/cut 3.0 1.7274526144741178 6.0
pair_coeff 11 80 lj/cut 3.0 1.7274526144741178 6.0
pair_coeff 12 29 lj/cut 3.0 1.7274526144741178 6.0
pair_coeff 12 34 lj/cut 3.0 1.7274526144741178 6.0
pair_coeff 12 65 lj/cut 3.0 1.7274526144741178 6.0
pair_coeff 12 70 lj/cut 3.0 1.7274526144741178 6.0
pair_coeff 12 86 lj/cut 3.0 1.7274526144741178 6.0
pair_coeff 12 87 lj/cut 3.0 1.7274526144741178 6.0
pair_coeff 13 41 lj/cut 3.0 1.7274526144741178 6.0
pair_coeff 13 51 lj/cut 3.0 1.7274526144741178 6.0
pair_coeff 13 53 lj/cut 3.0 1.7274526144741178 6.0
pair_coeff 13 77 lj/cut 3.0 1.7274526144741178 6.0
pair_coeff 13 84 lj/cut 3.0 1.7274526144741178 6.0
pair_coeff 13 88 lj/cut 3.0 1.7274526144741178 6.0
pair_coeff 14 43 lj/cut 3.0 1.7274526144741178 6.0
pair_coeff 14 60 lj/cut 3.0 1.7274526144741178 6.0
pair_coeff 14 73 lj/cut 3.0 1.7274526144741178 6.0
pair_coeff 14 81 lj/cut 3.0 1.7274526144741178 6.0
pair_coeff 14 82 lj/cut 3.0 1.7274526144741178 6.0
pair_coeff 14 83 lj/cut 3.0 1.7274526144741178 6.0
pair_coeff 15 55 lj/cut 3.0 1.7274526144741178 6.0
pair_coeff 15 56 lj/cut 3.0 1.7274526144741178 6.0
pair_coeff 15 57 lj/cut 3.0 1.7274526144741178 6.0
pair_coeff 15 58 lj/cut 3.0 1.7274526144741178 6.0
pair_coeff 15 59 lj/cut 3.0 1.7274526144741178 6.0
pair_coeff 15 60 lj/cut 3.0 1.7274526144741178 6.0
pair_coeff 16 46 lj/cut 3.0 1.7274526144741178 6.0
pair_coeff 16 47 lj/cut 3.0 1.7274526144741178 6.0
pair_coeff 16 48 lj/cut 3.0 1.7274526144741178 6.0
pair_coeff 16 49 lj/cut 3.0 1.7274526144741178 6.0
pair_coeff 16 50 lj/cut 3.0 1.7274526144741178 6.0
pair_coeff 16 51 lj/cut 3.0 1.7274526144741178 6.0
pair_coeff 17 38 lj/cut 3.0 1.3728749246542629 6.0
pair_coeff 17 47 lj/cut 3.0 1.3728749246542629 6.0
pair_coeff 17 66 lj/cut 3.0 1.3728749246542629 6.0
pair_coeff 17 67 lj/cut 3.0 1.3728749246542629 6.0
pair_coeff 18 39 lj/cut 3.0 1.3728749246542629 6.0
pair_coeff 18 55 lj/cut 3.0 1.3728749246542629 6.0
pair_coeff 18 72 lj/cut 3.0 1.3728749246542629 6.0
pair_coeff 18 79 lj/cut 3.0 1.3728749246542629 6.0
pair_coeff 19 25 lj/cut 3.0 1.3728749246542629 6.0
pair_coeff 19 52 lj/cut 3.0 1.3728749246542629 6.0
pair_coeff 19 53 lj/cut 3.0 1.3728749246542629 6.0
pair_coeff 19 54 lj/cut 3.0 1.3728749246542629 6.0
pair_coeff 20 28 lj/cut 3.0 1.3728749246542629 6.0
pair_coeff 20 43 lj/cut 3.0 1.3728749246542629 6.0
pair_coeff 20 44 lj/cut 3.0 1.3728749246542629 6.0
pair_coeff 20 45 lj/cut 3.0 1.3728749246542629 6.0
pair_coeff 21 40 lj/cut 3.0 1.3728749246542629 6.0
pair_coeff 21 73 lj/cut 3.0 1.3728749246542629 6.0
pair_coeff 21 74 lj/cut 3.0 1.3728749246542629 6.0
pair_coeff 21 75 lj/cut 3.0 1.3728749246542629 6.0
pair_coeff 22 37 lj/cut 3.0 1.3728749246542629 6.0
pair_coeff 22 77 lj/cut 3.0 1.3728749246542629 6.0
pair_coeff 22 78 lj/cut 3.0 1.3728749246542629 6.0
pair_coeff 22 79 lj/cut 3.0 1.3728749246542629 6.0
pair_coeff 23 26 lj/cut 3.0 1.3728749246542629 6.0
pair_coeff 23 56 lj/cut 3.0 1.3728749246542629 6.0
pair_coeff 23 85 lj/cut 3.0 1.3728749246542629 6.0
pair_coeff 23 87 lj/cut 3.0 1.3728749246542629 6.0
pair_coeff 24 27 lj/cut 3.0 1.3728749246542629 6.0
pair_coeff 24 46 lj/cut 3.0 1.3728749246542629 6.0
pair_coeff 24 80 lj/cut 3.0 1.3728749246542629 6.0
pair_coeff 24 83 lj/cut 3.0 1.3728749246542629 6.0
