boundary p p p
units metal
atom_modify map yes
neighbor 2.0 bin
neigh_modify every 1 delay 0 check yes


read_data coo

mass * 1

atom_modify sort 0 0.0

thermo 1
thermo_style custom step temp pe evdwl ecoul vol press spcpu

pair_style hybrid/overlay lj/cut 6.0 harmonic/cut 

pair_coeff   *     *   harmonic/cut       0.0  0.0
pair_coeff 25*88 25*88 harmonic/cut       0.01 2.0
pair_coeff * * lj/cut         0.0 0.0   0.0

minimize 0.0 2.0e-3 1000 10000000

pair_coeff   *     *   harmonic/cut       0.0  0.0

pair_coeff 1 37 lj/cut 3.0 1.7274526144741178 6.0
pair_coeff 1 38 lj/cut 3.0 1.7274526144741178 6.0
pair_coeff 1 39 lj/cut 3.0 1.7274526144741178 6.0
pair_coeff 1 40 lj/cut 3.0 1.7274526144741178 6.0
pair_coeff 1 41 lj/cut 3.0 1.7274526144741178 6.0
pair_coeff 1 42 lj/cut 3.0 1.7274526144741178 6.0
pair_coeff 2 25 lj/cut 3.0 1.7274526144741178 6.0
pair_coeff 2 26 lj/cut 3.0 1.7274526144741178 6.0
pair_coeff 2 27 lj/cut 3.0 1.7274526144741178 6.0
pair_coeff 2 28 lj/cut 3.0 1.7274526144741178 6.0
pair_coeff 2 29 lj/cut 3.0 1.7274526144741178 6.0
pair_coeff 2 30 lj/cut 3.0 1.7274526144741178 6.0
pair_coeff 3 50 lj/cut 3.0 1.7274526144741178 6.0
pair_coeff 3 59 lj/cut 3.0 1.7274526144741178 6.0
pair_coeff 3 82 lj/cut 3.0 1.7274526144741178 6.0
pair_coeff 3 84 lj/cut 3.0 1.7274526144741178 6.0
pair_coeff 3 85 lj/cut 3.0 1.7274526144741178 6.0
pair_coeff 3 86 lj/cut 3.0 1.7274526144741178 6.0
pair_coeff 4 31 lj/cut 3.0 1.7274526144741178 6.0
pair_coeff 4 32 lj/cut 3.0 1.7274526144741178 6.0
pair_coeff 4 33 lj/cut 3.0 1.7274526144741178 6.0
pair_coeff 4 34 lj/cut 3.0 1.7274526144741178 6.0
pair_coeff 4 35 lj/cut 3.0 1.7274526144741178 6.0
pair_coeff 4 36 lj/cut 3.0 1.7274526144741178 6.0
pair_coeff 5 45 lj/cut 3.0 1.7274526144741178 6.0
pair_coeff 5 61 lj/cut 3.0 1.7274526144741178 6.0
pair_coeff 5 62 lj/cut 3.0 1.7274526144741178 6.0
pair_coeff 5 63 lj/cut 3.0 1.7274526144741178 6.0
pair_coeff 5 64 lj/cut 3.0 1.7274526144741178 6.0
pair_coeff 5 65 lj/cut 3.0 1.7274526144741178 6.0
pair_coeff 6 61 lj/cut 3.0 1.7274526144741178 6.0
pair_coeff 6 68 lj/cut 3.0 1.7274526144741178 6.0
pair_coeff 6 69 lj/cut 3.0 1.7274526144741178 6.0
pair_coeff 6 70 lj/cut 3.0 1.7274526144741178 6.0
pair_coeff 6 71 lj/cut 3.0 1.7274526144741178 6.0
pair_coeff 6 72 lj/cut 3.0 1.7274526144741178 6.0
pair_coeff 7 36 lj/cut 3.0 1.7274526144741178 6.0
pair_coeff 7 49 lj/cut 3.0 1.7274526144741178 6.0
pair_coeff 7 58 lj/cut 3.0 1.7274526144741178 6.0
pair_coeff 7 67 lj/cut 3.0 1.7274526144741178 6.0
pair_coeff 7 75 lj/cut 3.0 1.7274526144741178 6.0
pair_coeff 7 78 lj/cut 3.0 1.7274526144741178 6.0
pair_coeff 8 35 lj/cut 3.0 1.7274526144741178 6.0
pair_coeff 8 48 lj/cut 3.0 1.7274526144741178 6.0
pair_coeff 8 54 lj/cut 3.0 1.7274526144741178 6.0
pair_coeff 8 57 lj/cut 3.0 1.7274526144741178 6.0
pair_coeff 8 81 lj/cut 3.0 1.7274526144741178 6.0
pair_coeff 8 88 lj/cut 3.0 1.7274526144741178 6.0
pair_coeff 9 31 lj/cut 3.0 1.7274526144741178 6.0
pair_coeff 9 44 lj/cut 3.0 1.7274526144741178 6.0
pair_coeff 9 63 lj/cut 3.0 1.7274526144741178 6.0
pair_coeff 9 71 lj/cut 3.0 1.7274526144741178 6.0
pair_coeff 9 74 lj/cut 3.0 1.7274526144741178 6.0
pair_coeff 9 76 lj/cut 3.0 1.7274526144741178 6.0
pair_coeff 10 30 lj/cut 3.0 1.7274526144741178 6.0
pair_coeff 10 33 lj/cut 3.0 1.7274526144741178 6.0
pair_coeff 10 42 lj/cut 3.0 1.7274526144741178 6.0
pair_coeff 10 52 lj/cut 3.0 1.7274526144741178 6.0
pair_coeff 10 64 lj/cut 3.0 1.7274526144741178 6.0
pair_coeff 10 69 lj/cut 3.0 1.7274526144741178 6.0
pair_coeff 11 32 lj/cut 3.0 1.7274526144741178 6.0
pair_coeff 11 62 lj/cut 3.0 1.7274526144741178 6.0
pair_coeff 11 66 lj/cut 3.0 1.7274526144741178 6.0
pair_coeff 11 68 lj/cut 3.0 1.7274526144741178 6.0
pair_coeff 11 76 lj/cut 3.0 1.7274526144741178 6.0
pair_coeff 11 80 lj/cut 3.0 1.7274526144741178 6.0
pair_coeff 12 29 lj/cut 3.0 1.7274526144741178 6.0
pair_coeff 12 34 lj/cut 3.0 1.7274526144741178 6.0
pair_coeff 12 65 lj/cut 3.0 1.7274526144741178 6.0
pair_coeff 12 70 lj/cut 3.0 1.7274526144741178 6.0
pair_coeff 12 86 lj/cut 3.0 1.7274526144741178 6.0
pair_coeff 12 87 lj/cut 3.0 1.7274526144741178 6.0
pair_coeff 13 41 lj/cut 3.0 1.7274526144741178 6.0
pair_coeff 13 51 lj/cut 3.0 1.7274526144741178 6.0
pair_coeff 13 53 lj/cut 3.0 1.7274526144741178 6.0
pair_coeff 13 77 lj/cut 3.0 1.7274526144741178 6.0
pair_coeff 13 84 lj/cut 3.0 1.7274526144741178 6.0
pair_coeff 13 88 lj/cut 3.0 1.7274526144741178 6.0
pair_coeff 14 43 lj/cut 3.0 1.7274526144741178 6.0
pair_coeff 14 60 lj/cut 3.0 1.7274526144741178 6.0
pair_coeff 14 73 lj/cut 3.0 1.7274526144741178 6.0
pair_coeff 14 81 lj/cut 3.0 1.7274526144741178 6.0
pair_coeff 14 82 lj/cut 3.0 1.7274526144741178 6.0
pair_coeff 14 83 lj/cut 3.0 1.7274526144741178 6.0
pair_coeff 15 55 lj/cut 3.0 1.7274526144741178 6.0
pair_coeff 15 56 lj/cut 3.0 1.7274526144741178 6.0
pair_coeff 15 57 lj/cut 3.0 1.7274526144741178 6.0
pair_coeff 15 58 lj/cut 3.0 1.7274526144741178 6.0
pair_coeff 15 59 lj/cut 3.0 1.7274526144741178 6.0
pair_coeff 15 60 lj/cut 3.0 1.7274526144741178 6.0
pair_coeff 16 46 lj/cut 3.0 1.7274526144741178 6.0
pair_coeff 16 47 lj/cut 3.0 1.7274526144741178 6.0
pair_coeff 16 48 lj/cut 3.0 1.7274526144741178 6.0
pair_coeff 16 49 lj/cut 3.0 1.7274526144741178 6.0
pair_coeff 16 50 lj/cut 3.0 1.7274526144741178 6.0
pair_coeff 16 51 lj/cut 3.0 1.7274526144741178 6.0
pair_coeff 17 38 lj/cut 3.0 1.3728749246542629 6.0
pair_coeff 17 47 lj/cut 3.0 1.3728749246542629 6.0
pair_coeff 17 66 lj/cut 3.0 1.3728749246542629 6.0
pair_coeff 17 67 lj/cut 3.0 1.3728749246542629 6.0
pair_coeff 18 39 lj/cut 3.0 1.3728749246542629 6.0
pair_coeff 18 55 lj/cut 3.0 1.3728749246542629 6.0
pair_coeff 18 72 lj/cut 3.0 1.3728749246542629 6.0
pair_coeff 18 79 lj/cut 3.0 1.3728749246542629 6.0
pair_coeff 19 25 lj/cut 3.0 1.3728749246542629 6.0
pair_coeff 19 52 lj/cut 3.0 1.3728749246542629 6.0
pair_coeff 19 53 lj/cut 3.0 1.3728749246542629 6.0
pair_coeff 19 54 lj/cut 3.0 1.3728749246542629 6.0
pair_coeff 20 28 lj/cut 3.0 1.3728749246542629 6.0
pair_coeff 20 43 lj/cut 3.0 1.3728749246542629 6.0
pair_coeff 20 44 lj/cut 3.0 1.3728749246542629 6.0
pair_coeff 20 45 lj/cut 3.0 1.3728749246542629 6.0
pair_coeff 21 40 lj/cut 3.0 1.3728749246542629 6.0
pair_coeff 21 73 lj/cut 3.0 1.3728749246542629 6.0
pair_coeff 21 74 lj/cut 3.0 1.3728749246542629 6.0
pair_coeff 21 75 lj/cut 3.0 1.3728749246542629 6.0
pair_coeff 22 37 lj/cut 3.0 1.3728749246542629 6.0
pair_coeff 22 77 lj/cut 3.0 1.3728749246542629 6.0
pair_coeff 22 78 lj/cut 3.0 1.3728749246542629 6.0
pair_coeff 22 79 lj/cut 3.0 1.3728749246542629 6.0
pair_coeff 23 26 lj/cut 3.0 1.3728749246542629 6.0
pair_coeff 23 56 lj/cut 3.0 1.3728749246542629 6.0
pair_coeff 23 85 lj/cut 3.0 1.3728749246542629 6.0
pair_coeff 23 87 lj/cut 3.0 1.3728749246542629 6.0
pair_coeff 24 27 lj/cut 3.0 1.3728749246542629 6.0
pair_coeff 24 46 lj/cut 3.0 1.3728749246542629 6.0
pair_coeff 24 80 lj/cut 3.0 1.3728749246542629 6.0
pair_coeff 24 83 lj/cut 3.0 1.3728749246542629 6.0

pair_coeff 1 25 harmonic/cut 0.2 3.2 
pair_coeff 1 26 harmonic/cut 0.2 3.2 
pair_coeff 1 27 harmonic/cut 0.2 3.2 
pair_coeff 1 28 harmonic/cut 0.2 3.2 
pair_coeff 1 29 harmonic/cut 0.2 3.2 
pair_coeff 1 30 harmonic/cut 0.2 3.2 
pair_coeff 1 50 harmonic/cut 0.2 3.2 
pair_coeff 1 59 harmonic/cut 0.2 3.2 
pair_coeff 1 82 harmonic/cut 0.2 3.2 
pair_coeff 1 84 harmonic/cut 0.2 3.2 
pair_coeff 1 85 harmonic/cut 0.2 3.2 
pair_coeff 1 86 harmonic/cut 0.2 3.2 
pair_coeff 1 31 harmonic/cut 0.2 3.2 
pair_coeff 1 32 harmonic/cut 0.2 3.2 
pair_coeff 1 33 harmonic/cut 0.2 3.2 
pair_coeff 1 34 harmonic/cut 0.2 3.2 
pair_coeff 1 35 harmonic/cut 0.2 3.2 
pair_coeff 1 36 harmonic/cut 0.2 3.2 
pair_coeff 1 45 harmonic/cut 0.2 3.2 
pair_coeff 1 61 harmonic/cut 0.2 3.2 
pair_coeff 1 62 harmonic/cut 0.2 3.2 
pair_coeff 1 63 harmonic/cut 0.2 3.2 
pair_coeff 1 64 harmonic/cut 0.2 3.2 
pair_coeff 1 65 harmonic/cut 0.2 3.2 
pair_coeff 1 68 harmonic/cut 0.2 3.2 
pair_coeff 1 69 harmonic/cut 0.2 3.2 
pair_coeff 1 70 harmonic/cut 0.2 3.2 
pair_coeff 1 71 harmonic/cut 0.2 3.2 
pair_coeff 1 72 harmonic/cut 0.2 3.2 
pair_coeff 1 49 harmonic/cut 0.2 3.2 
pair_coeff 1 58 harmonic/cut 0.2 3.2 
pair_coeff 1 67 harmonic/cut 0.2 3.2 
pair_coeff 1 75 harmonic/cut 0.2 3.2 
pair_coeff 1 78 harmonic/cut 0.2 3.2 
pair_coeff 1 48 harmonic/cut 0.2 3.2 
pair_coeff 1 54 harmonic/cut 0.2 3.2 
pair_coeff 1 57 harmonic/cut 0.2 3.2 
pair_coeff 1 81 harmonic/cut 0.2 3.2 
pair_coeff 1 88 harmonic/cut 0.2 3.2 
pair_coeff 1 44 harmonic/cut 0.2 3.2 
pair_coeff 1 74 harmonic/cut 0.2 3.2 
pair_coeff 1 76 harmonic/cut 0.2 3.2 
pair_coeff 1 52 harmonic/cut 0.2 3.2 
pair_coeff 1 66 harmonic/cut 0.2 3.2 
pair_coeff 1 80 harmonic/cut 0.2 3.2 
pair_coeff 1 87 harmonic/cut 0.2 3.2 
pair_coeff 1 51 harmonic/cut 0.2 3.2 
pair_coeff 1 53 harmonic/cut 0.2 3.2 
pair_coeff 1 77 harmonic/cut 0.2 3.2 
pair_coeff 1 43 harmonic/cut 0.2 3.2 
pair_coeff 1 60 harmonic/cut 0.2 3.2 
pair_coeff 1 73 harmonic/cut 0.2 3.2 
pair_coeff 1 83 harmonic/cut 0.2 3.2 
pair_coeff 1 55 harmonic/cut 0.2 3.2 
pair_coeff 1 56 harmonic/cut 0.2 3.2 
pair_coeff 1 46 harmonic/cut 0.2 3.2 
pair_coeff 1 47 harmonic/cut 0.2 3.2 
pair_coeff 1 79 harmonic/cut 0.2 3.2 
pair_coeff 2 37 harmonic/cut 0.2 3.2 
pair_coeff 2 38 harmonic/cut 0.2 3.2 
pair_coeff 2 39 harmonic/cut 0.2 3.2 
pair_coeff 2 40 harmonic/cut 0.2 3.2 
pair_coeff 2 41 harmonic/cut 0.2 3.2 
pair_coeff 2 42 harmonic/cut 0.2 3.2 
pair_coeff 2 50 harmonic/cut 0.2 3.2 
pair_coeff 2 59 harmonic/cut 0.2 3.2 
pair_coeff 2 82 harmonic/cut 0.2 3.2 
pair_coeff 2 84 harmonic/cut 0.2 3.2 
pair_coeff 2 85 harmonic/cut 0.2 3.2 
pair_coeff 2 86 harmonic/cut 0.2 3.2 
pair_coeff 2 31 harmonic/cut 0.2 3.2 
pair_coeff 2 32 harmonic/cut 0.2 3.2 
pair_coeff 2 33 harmonic/cut 0.2 3.2 
pair_coeff 2 34 harmonic/cut 0.2 3.2 
pair_coeff 2 35 harmonic/cut 0.2 3.2 
pair_coeff 2 36 harmonic/cut 0.2 3.2 
pair_coeff 2 45 harmonic/cut 0.2 3.2 
pair_coeff 2 61 harmonic/cut 0.2 3.2 
pair_coeff 2 62 harmonic/cut 0.2 3.2 
pair_coeff 2 63 harmonic/cut 0.2 3.2 
pair_coeff 2 64 harmonic/cut 0.2 3.2 
pair_coeff 2 65 harmonic/cut 0.2 3.2 
pair_coeff 2 68 harmonic/cut 0.2 3.2 
pair_coeff 2 69 harmonic/cut 0.2 3.2 
pair_coeff 2 70 harmonic/cut 0.2 3.2 
pair_coeff 2 71 harmonic/cut 0.2 3.2 
pair_coeff 2 72 harmonic/cut 0.2 3.2 
pair_coeff 2 49 harmonic/cut 0.2 3.2 
pair_coeff 2 58 harmonic/cut 0.2 3.2 
pair_coeff 2 67 harmonic/cut 0.2 3.2 
pair_coeff 2 75 harmonic/cut 0.2 3.2 
pair_coeff 2 78 harmonic/cut 0.2 3.2 
pair_coeff 2 48 harmonic/cut 0.2 3.2 
pair_coeff 2 54 harmonic/cut 0.2 3.2 
pair_coeff 2 57 harmonic/cut 0.2 3.2 
pair_coeff 2 81 harmonic/cut 0.2 3.2 
pair_coeff 2 88 harmonic/cut 0.2 3.2 
pair_coeff 2 44 harmonic/cut 0.2 3.2 
pair_coeff 2 74 harmonic/cut 0.2 3.2 
pair_coeff 2 76 harmonic/cut 0.2 3.2 
pair_coeff 2 52 harmonic/cut 0.2 3.2 
pair_coeff 2 66 harmonic/cut 0.2 3.2 
pair_coeff 2 80 harmonic/cut 0.2 3.2 
pair_coeff 2 87 harmonic/cut 0.2 3.2 
pair_coeff 2 51 harmonic/cut 0.2 3.2 
pair_coeff 2 53 harmonic/cut 0.2 3.2 
pair_coeff 2 77 harmonic/cut 0.2 3.2 
pair_coeff 2 43 harmonic/cut 0.2 3.2 
pair_coeff 2 60 harmonic/cut 0.2 3.2 
pair_coeff 2 73 harmonic/cut 0.2 3.2 
pair_coeff 2 83 harmonic/cut 0.2 3.2 
pair_coeff 2 55 harmonic/cut 0.2 3.2 
pair_coeff 2 56 harmonic/cut 0.2 3.2 
pair_coeff 2 46 harmonic/cut 0.2 3.2 
pair_coeff 2 47 harmonic/cut 0.2 3.2 
pair_coeff 2 79 harmonic/cut 0.2 3.2 
pair_coeff 3 37 harmonic/cut 0.2 3.2 
pair_coeff 3 38 harmonic/cut 0.2 3.2 
pair_coeff 3 39 harmonic/cut 0.2 3.2 
pair_coeff 3 40 harmonic/cut 0.2 3.2 
pair_coeff 3 41 harmonic/cut 0.2 3.2 
pair_coeff 3 42 harmonic/cut 0.2 3.2 
pair_coeff 3 25 harmonic/cut 0.2 3.2 
pair_coeff 3 26 harmonic/cut 0.2 3.2 
pair_coeff 3 27 harmonic/cut 0.2 3.2 
pair_coeff 3 28 harmonic/cut 0.2 3.2 
pair_coeff 3 29 harmonic/cut 0.2 3.2 
pair_coeff 3 30 harmonic/cut 0.2 3.2 
pair_coeff 3 31 harmonic/cut 0.2 3.2 
pair_coeff 3 32 harmonic/cut 0.2 3.2 
pair_coeff 3 33 harmonic/cut 0.2 3.2 
pair_coeff 3 34 harmonic/cut 0.2 3.2 
pair_coeff 3 35 harmonic/cut 0.2 3.2 
pair_coeff 3 36 harmonic/cut 0.2 3.2 
pair_coeff 3 45 harmonic/cut 0.2 3.2 
pair_coeff 3 61 harmonic/cut 0.2 3.2 
pair_coeff 3 62 harmonic/cut 0.2 3.2 
pair_coeff 3 63 harmonic/cut 0.2 3.2 
pair_coeff 3 64 harmonic/cut 0.2 3.2 
pair_coeff 3 65 harmonic/cut 0.2 3.2 
pair_coeff 3 68 harmonic/cut 0.2 3.2 
pair_coeff 3 69 harmonic/cut 0.2 3.2 
pair_coeff 3 70 harmonic/cut 0.2 3.2 
pair_coeff 3 71 harmonic/cut 0.2 3.2 
pair_coeff 3 72 harmonic/cut 0.2 3.2 
pair_coeff 3 49 harmonic/cut 0.2 3.2 
pair_coeff 3 58 harmonic/cut 0.2 3.2 
pair_coeff 3 67 harmonic/cut 0.2 3.2 
pair_coeff 3 75 harmonic/cut 0.2 3.2 
pair_coeff 3 78 harmonic/cut 0.2 3.2 
pair_coeff 3 48 harmonic/cut 0.2 3.2 
pair_coeff 3 54 harmonic/cut 0.2 3.2 
pair_coeff 3 57 harmonic/cut 0.2 3.2 
pair_coeff 3 81 harmonic/cut 0.2 3.2 
pair_coeff 3 88 harmonic/cut 0.2 3.2 
pair_coeff 3 44 harmonic/cut 0.2 3.2 
pair_coeff 3 74 harmonic/cut 0.2 3.2 
pair_coeff 3 76 harmonic/cut 0.2 3.2 
pair_coeff 3 52 harmonic/cut 0.2 3.2 
pair_coeff 3 66 harmonic/cut 0.2 3.2 
pair_coeff 3 80 harmonic/cut 0.2 3.2 
pair_coeff 3 87 harmonic/cut 0.2 3.2 
pair_coeff 3 51 harmonic/cut 0.2 3.2 
pair_coeff 3 53 harmonic/cut 0.2 3.2 
pair_coeff 3 77 harmonic/cut 0.2 3.2 
pair_coeff 3 43 harmonic/cut 0.2 3.2 
pair_coeff 3 60 harmonic/cut 0.2 3.2 
pair_coeff 3 73 harmonic/cut 0.2 3.2 
pair_coeff 3 83 harmonic/cut 0.2 3.2 
pair_coeff 3 55 harmonic/cut 0.2 3.2 
pair_coeff 3 56 harmonic/cut 0.2 3.2 
pair_coeff 3 46 harmonic/cut 0.2 3.2 
pair_coeff 3 47 harmonic/cut 0.2 3.2 
pair_coeff 3 79 harmonic/cut 0.2 3.2 
pair_coeff 4 37 harmonic/cut 0.2 3.2 
pair_coeff 4 38 harmonic/cut 0.2 3.2 
pair_coeff 4 39 harmonic/cut 0.2 3.2 
pair_coeff 4 40 harmonic/cut 0.2 3.2 
pair_coeff 4 41 harmonic/cut 0.2 3.2 
pair_coeff 4 42 harmonic/cut 0.2 3.2 
pair_coeff 4 25 harmonic/cut 0.2 3.2 
pair_coeff 4 26 harmonic/cut 0.2 3.2 
pair_coeff 4 27 harmonic/cut 0.2 3.2 
pair_coeff 4 28 harmonic/cut 0.2 3.2 
pair_coeff 4 29 harmonic/cut 0.2 3.2 
pair_coeff 4 30 harmonic/cut 0.2 3.2 
pair_coeff 4 50 harmonic/cut 0.2 3.2 
pair_coeff 4 59 harmonic/cut 0.2 3.2 
pair_coeff 4 82 harmonic/cut 0.2 3.2 
pair_coeff 4 84 harmonic/cut 0.2 3.2 
pair_coeff 4 85 harmonic/cut 0.2 3.2 
pair_coeff 4 86 harmonic/cut 0.2 3.2 
pair_coeff 4 45 harmonic/cut 0.2 3.2 
pair_coeff 4 61 harmonic/cut 0.2 3.2 
pair_coeff 4 62 harmonic/cut 0.2 3.2 
pair_coeff 4 63 harmonic/cut 0.2 3.2 
pair_coeff 4 64 harmonic/cut 0.2 3.2 
pair_coeff 4 65 harmonic/cut 0.2 3.2 
pair_coeff 4 68 harmonic/cut 0.2 3.2 
pair_coeff 4 69 harmonic/cut 0.2 3.2 
pair_coeff 4 70 harmonic/cut 0.2 3.2 
pair_coeff 4 71 harmonic/cut 0.2 3.2 
pair_coeff 4 72 harmonic/cut 0.2 3.2 
pair_coeff 4 49 harmonic/cut 0.2 3.2 
pair_coeff 4 58 harmonic/cut 0.2 3.2 
pair_coeff 4 67 harmonic/cut 0.2 3.2 
pair_coeff 4 75 harmonic/cut 0.2 3.2 
pair_coeff 4 78 harmonic/cut 0.2 3.2 
pair_coeff 4 48 harmonic/cut 0.2 3.2 
pair_coeff 4 54 harmonic/cut 0.2 3.2 
pair_coeff 4 57 harmonic/cut 0.2 3.2 
pair_coeff 4 81 harmonic/cut 0.2 3.2 
pair_coeff 4 88 harmonic/cut 0.2 3.2 
pair_coeff 4 44 harmonic/cut 0.2 3.2 
pair_coeff 4 74 harmonic/cut 0.2 3.2 
pair_coeff 4 76 harmonic/cut 0.2 3.2 
pair_coeff 4 52 harmonic/cut 0.2 3.2 
pair_coeff 4 66 harmonic/cut 0.2 3.2 
pair_coeff 4 80 harmonic/cut 0.2 3.2 
pair_coeff 4 87 harmonic/cut 0.2 3.2 
pair_coeff 4 51 harmonic/cut 0.2 3.2 
pair_coeff 4 53 harmonic/cut 0.2 3.2 
pair_coeff 4 77 harmonic/cut 0.2 3.2 
pair_coeff 4 43 harmonic/cut 0.2 3.2 
pair_coeff 4 60 harmonic/cut 0.2 3.2 
pair_coeff 4 73 harmonic/cut 0.2 3.2 
pair_coeff 4 83 harmonic/cut 0.2 3.2 
pair_coeff 4 55 harmonic/cut 0.2 3.2 
pair_coeff 4 56 harmonic/cut 0.2 3.2 
pair_coeff 4 46 harmonic/cut 0.2 3.2 
pair_coeff 4 47 harmonic/cut 0.2 3.2 
pair_coeff 4 79 harmonic/cut 0.2 3.2 
pair_coeff 5 37 harmonic/cut 0.2 3.2 
pair_coeff 5 38 harmonic/cut 0.2 3.2 
pair_coeff 5 39 harmonic/cut 0.2 3.2 
pair_coeff 5 40 harmonic/cut 0.2 3.2 
pair_coeff 5 41 harmonic/cut 0.2 3.2 
pair_coeff 5 42 harmonic/cut 0.2 3.2 
pair_coeff 5 25 harmonic/cut 0.2 3.2 
pair_coeff 5 26 harmonic/cut 0.2 3.2 
pair_coeff 5 27 harmonic/cut 0.2 3.2 
pair_coeff 5 28 harmonic/cut 0.2 3.2 
pair_coeff 5 29 harmonic/cut 0.2 3.2 
pair_coeff 5 30 harmonic/cut 0.2 3.2 
pair_coeff 5 50 harmonic/cut 0.2 3.2 
pair_coeff 5 59 harmonic/cut 0.2 3.2 
pair_coeff 5 82 harmonic/cut 0.2 3.2 
pair_coeff 5 84 harmonic/cut 0.2 3.2 
pair_coeff 5 85 harmonic/cut 0.2 3.2 
pair_coeff 5 86 harmonic/cut 0.2 3.2 
pair_coeff 5 31 harmonic/cut 0.2 3.2 
pair_coeff 5 32 harmonic/cut 0.2 3.2 
pair_coeff 5 33 harmonic/cut 0.2 3.2 
pair_coeff 5 34 harmonic/cut 0.2 3.2 
pair_coeff 5 35 harmonic/cut 0.2 3.2 
pair_coeff 5 36 harmonic/cut 0.2 3.2 
pair_coeff 5 68 harmonic/cut 0.2 3.2 
pair_coeff 5 69 harmonic/cut 0.2 3.2 
pair_coeff 5 70 harmonic/cut 0.2 3.2 
pair_coeff 5 71 harmonic/cut 0.2 3.2 
pair_coeff 5 72 harmonic/cut 0.2 3.2 
pair_coeff 5 49 harmonic/cut 0.2 3.2 
pair_coeff 5 58 harmonic/cut 0.2 3.2 
pair_coeff 5 67 harmonic/cut 0.2 3.2 
pair_coeff 5 75 harmonic/cut 0.2 3.2 
pair_coeff 5 78 harmonic/cut 0.2 3.2 
pair_coeff 5 48 harmonic/cut 0.2 3.2 
pair_coeff 5 54 harmonic/cut 0.2 3.2 
pair_coeff 5 57 harmonic/cut 0.2 3.2 
pair_coeff 5 81 harmonic/cut 0.2 3.2 
pair_coeff 5 88 harmonic/cut 0.2 3.2 
pair_coeff 5 44 harmonic/cut 0.2 3.2 
pair_coeff 5 74 harmonic/cut 0.2 3.2 
pair_coeff 5 76 harmonic/cut 0.2 3.2 
pair_coeff 5 52 harmonic/cut 0.2 3.2 
pair_coeff 5 66 harmonic/cut 0.2 3.2 
pair_coeff 5 80 harmonic/cut 0.2 3.2 
pair_coeff 5 87 harmonic/cut 0.2 3.2 
pair_coeff 5 51 harmonic/cut 0.2 3.2 
pair_coeff 5 53 harmonic/cut 0.2 3.2 
pair_coeff 5 77 harmonic/cut 0.2 3.2 
pair_coeff 5 43 harmonic/cut 0.2 3.2 
pair_coeff 5 60 harmonic/cut 0.2 3.2 
pair_coeff 5 73 harmonic/cut 0.2 3.2 
pair_coeff 5 83 harmonic/cut 0.2 3.2 
pair_coeff 5 55 harmonic/cut 0.2 3.2 
pair_coeff 5 56 harmonic/cut 0.2 3.2 
pair_coeff 5 46 harmonic/cut 0.2 3.2 
pair_coeff 5 47 harmonic/cut 0.2 3.2 
pair_coeff 5 79 harmonic/cut 0.2 3.2 
pair_coeff 6 37 harmonic/cut 0.2 3.2 
pair_coeff 6 38 harmonic/cut 0.2 3.2 
pair_coeff 6 39 harmonic/cut 0.2 3.2 
pair_coeff 6 40 harmonic/cut 0.2 3.2 
pair_coeff 6 41 harmonic/cut 0.2 3.2 
pair_coeff 6 42 harmonic/cut 0.2 3.2 
pair_coeff 6 25 harmonic/cut 0.2 3.2 
pair_coeff 6 26 harmonic/cut 0.2 3.2 
pair_coeff 6 27 harmonic/cut 0.2 3.2 
pair_coeff 6 28 harmonic/cut 0.2 3.2 
pair_coeff 6 29 harmonic/cut 0.2 3.2 
pair_coeff 6 30 harmonic/cut 0.2 3.2 
pair_coeff 6 50 harmonic/cut 0.2 3.2 
pair_coeff 6 59 harmonic/cut 0.2 3.2 
pair_coeff 6 82 harmonic/cut 0.2 3.2 
pair_coeff 6 84 harmonic/cut 0.2 3.2 
pair_coeff 6 85 harmonic/cut 0.2 3.2 
pair_coeff 6 86 harmonic/cut 0.2 3.2 
pair_coeff 6 31 harmonic/cut 0.2 3.2 
pair_coeff 6 32 harmonic/cut 0.2 3.2 
pair_coeff 6 33 harmonic/cut 0.2 3.2 
pair_coeff 6 34 harmonic/cut 0.2 3.2 
pair_coeff 6 35 harmonic/cut 0.2 3.2 
pair_coeff 6 36 harmonic/cut 0.2 3.2 
pair_coeff 6 45 harmonic/cut 0.2 3.2 
pair_coeff 6 62 harmonic/cut 0.2 3.2 
pair_coeff 6 63 harmonic/cut 0.2 3.2 
pair_coeff 6 64 harmonic/cut 0.2 3.2 
pair_coeff 6 65 harmonic/cut 0.2 3.2 
pair_coeff 6 49 harmonic/cut 0.2 3.2 
pair_coeff 6 58 harmonic/cut 0.2 3.2 
pair_coeff 6 67 harmonic/cut 0.2 3.2 
pair_coeff 6 75 harmonic/cut 0.2 3.2 
pair_coeff 6 78 harmonic/cut 0.2 3.2 
pair_coeff 6 48 harmonic/cut 0.2 3.2 
pair_coeff 6 54 harmonic/cut 0.2 3.2 
pair_coeff 6 57 harmonic/cut 0.2 3.2 
pair_coeff 6 81 harmonic/cut 0.2 3.2 
pair_coeff 6 88 harmonic/cut 0.2 3.2 
pair_coeff 6 44 harmonic/cut 0.2 3.2 
pair_coeff 6 74 harmonic/cut 0.2 3.2 
pair_coeff 6 76 harmonic/cut 0.2 3.2 
pair_coeff 6 52 harmonic/cut 0.2 3.2 
pair_coeff 6 66 harmonic/cut 0.2 3.2 
pair_coeff 6 80 harmonic/cut 0.2 3.2 
pair_coeff 6 87 harmonic/cut 0.2 3.2 
pair_coeff 6 51 harmonic/cut 0.2 3.2 
pair_coeff 6 53 harmonic/cut 0.2 3.2 
pair_coeff 6 77 harmonic/cut 0.2 3.2 
pair_coeff 6 43 harmonic/cut 0.2 3.2 
pair_coeff 6 60 harmonic/cut 0.2 3.2 
pair_coeff 6 73 harmonic/cut 0.2 3.2 
pair_coeff 6 83 harmonic/cut 0.2 3.2 
pair_coeff 6 55 harmonic/cut 0.2 3.2 
pair_coeff 6 56 harmonic/cut 0.2 3.2 
pair_coeff 6 46 harmonic/cut 0.2 3.2 
pair_coeff 6 47 harmonic/cut 0.2 3.2 
pair_coeff 6 79 harmonic/cut 0.2 3.2 
pair_coeff 7 37 harmonic/cut 0.2 3.2 
pair_coeff 7 38 harmonic/cut 0.2 3.2 
pair_coeff 7 39 harmonic/cut 0.2 3.2 
pair_coeff 7 40 harmonic/cut 0.2 3.2 
pair_coeff 7 41 harmonic/cut 0.2 3.2 
pair_coeff 7 42 harmonic/cut 0.2 3.2 
pair_coeff 7 25 harmonic/cut 0.2 3.2 
pair_coeff 7 26 harmonic/cut 0.2 3.2 
pair_coeff 7 27 harmonic/cut 0.2 3.2 
pair_coeff 7 28 harmonic/cut 0.2 3.2 
pair_coeff 7 29 harmonic/cut 0.2 3.2 
pair_coeff 7 30 harmonic/cut 0.2 3.2 
pair_coeff 7 50 harmonic/cut 0.2 3.2 
pair_coeff 7 59 harmonic/cut 0.2 3.2 
pair_coeff 7 82 harmonic/cut 0.2 3.2 
pair_coeff 7 84 harmonic/cut 0.2 3.2 
pair_coeff 7 85 harmonic/cut 0.2 3.2 
pair_coeff 7 86 harmonic/cut 0.2 3.2 
pair_coeff 7 31 harmonic/cut 0.2 3.2 
pair_coeff 7 32 harmonic/cut 0.2 3.2 
pair_coeff 7 33 harmonic/cut 0.2 3.2 
pair_coeff 7 34 harmonic/cut 0.2 3.2 
pair_coeff 7 35 harmonic/cut 0.2 3.2 
pair_coeff 7 45 harmonic/cut 0.2 3.2 
pair_coeff 7 61 harmonic/cut 0.2 3.2 
pair_coeff 7 62 harmonic/cut 0.2 3.2 
pair_coeff 7 63 harmonic/cut 0.2 3.2 
pair_coeff 7 64 harmonic/cut 0.2 3.2 
pair_coeff 7 65 harmonic/cut 0.2 3.2 
pair_coeff 7 68 harmonic/cut 0.2 3.2 
pair_coeff 7 69 harmonic/cut 0.2 3.2 
pair_coeff 7 70 harmonic/cut 0.2 3.2 
pair_coeff 7 71 harmonic/cut 0.2 3.2 
pair_coeff 7 72 harmonic/cut 0.2 3.2 
pair_coeff 7 48 harmonic/cut 0.2 3.2 
pair_coeff 7 54 harmonic/cut 0.2 3.2 
pair_coeff 7 57 harmonic/cut 0.2 3.2 
pair_coeff 7 81 harmonic/cut 0.2 3.2 
pair_coeff 7 88 harmonic/cut 0.2 3.2 
pair_coeff 7 44 harmonic/cut 0.2 3.2 
pair_coeff 7 74 harmonic/cut 0.2 3.2 
pair_coeff 7 76 harmonic/cut 0.2 3.2 
pair_coeff 7 52 harmonic/cut 0.2 3.2 
pair_coeff 7 66 harmonic/cut 0.2 3.2 
pair_coeff 7 80 harmonic/cut 0.2 3.2 
pair_coeff 7 87 harmonic/cut 0.2 3.2 
pair_coeff 7 51 harmonic/cut 0.2 3.2 
pair_coeff 7 53 harmonic/cut 0.2 3.2 
pair_coeff 7 77 harmonic/cut 0.2 3.2 
pair_coeff 7 43 harmonic/cut 0.2 3.2 
pair_coeff 7 60 harmonic/cut 0.2 3.2 
pair_coeff 7 73 harmonic/cut 0.2 3.2 
pair_coeff 7 83 harmonic/cut 0.2 3.2 
pair_coeff 7 55 harmonic/cut 0.2 3.2 
pair_coeff 7 56 harmonic/cut 0.2 3.2 
pair_coeff 7 46 harmonic/cut 0.2 3.2 
pair_coeff 7 47 harmonic/cut 0.2 3.2 
pair_coeff 7 79 harmonic/cut 0.2 3.2 
pair_coeff 8 37 harmonic/cut 0.2 3.2 
pair_coeff 8 38 harmonic/cut 0.2 3.2 
pair_coeff 8 39 harmonic/cut 0.2 3.2 
pair_coeff 8 40 harmonic/cut 0.2 3.2 
pair_coeff 8 41 harmonic/cut 0.2 3.2 
pair_coeff 8 42 harmonic/cut 0.2 3.2 
pair_coeff 8 25 harmonic/cut 0.2 3.2 
pair_coeff 8 26 harmonic/cut 0.2 3.2 
pair_coeff 8 27 harmonic/cut 0.2 3.2 
pair_coeff 8 28 harmonic/cut 0.2 3.2 
pair_coeff 8 29 harmonic/cut 0.2 3.2 
pair_coeff 8 30 harmonic/cut 0.2 3.2 
pair_coeff 8 50 harmonic/cut 0.2 3.2 
pair_coeff 8 59 harmonic/cut 0.2 3.2 
pair_coeff 8 82 harmonic/cut 0.2 3.2 
pair_coeff 8 84 harmonic/cut 0.2 3.2 
pair_coeff 8 85 harmonic/cut 0.2 3.2 
pair_coeff 8 86 harmonic/cut 0.2 3.2 
pair_coeff 8 31 harmonic/cut 0.2 3.2 
pair_coeff 8 32 harmonic/cut 0.2 3.2 
pair_coeff 8 33 harmonic/cut 0.2 3.2 
pair_coeff 8 34 harmonic/cut 0.2 3.2 
pair_coeff 8 36 harmonic/cut 0.2 3.2 
pair_coeff 8 45 harmonic/cut 0.2 3.2 
pair_coeff 8 61 harmonic/cut 0.2 3.2 
pair_coeff 8 62 harmonic/cut 0.2 3.2 
pair_coeff 8 63 harmonic/cut 0.2 3.2 
pair_coeff 8 64 harmonic/cut 0.2 3.2 
pair_coeff 8 65 harmonic/cut 0.2 3.2 
pair_coeff 8 68 harmonic/cut 0.2 3.2 
pair_coeff 8 69 harmonic/cut 0.2 3.2 
pair_coeff 8 70 harmonic/cut 0.2 3.2 
pair_coeff 8 71 harmonic/cut 0.2 3.2 
pair_coeff 8 72 harmonic/cut 0.2 3.2 
pair_coeff 8 49 harmonic/cut 0.2 3.2 
pair_coeff 8 58 harmonic/cut 0.2 3.2 
pair_coeff 8 67 harmonic/cut 0.2 3.2 
pair_coeff 8 75 harmonic/cut 0.2 3.2 
pair_coeff 8 78 harmonic/cut 0.2 3.2 
pair_coeff 8 44 harmonic/cut 0.2 3.2 
pair_coeff 8 74 harmonic/cut 0.2 3.2 
pair_coeff 8 76 harmonic/cut 0.2 3.2 
pair_coeff 8 52 harmonic/cut 0.2 3.2 
pair_coeff 8 66 harmonic/cut 0.2 3.2 
pair_coeff 8 80 harmonic/cut 0.2 3.2 
pair_coeff 8 87 harmonic/cut 0.2 3.2 
pair_coeff 8 51 harmonic/cut 0.2 3.2 
pair_coeff 8 53 harmonic/cut 0.2 3.2 
pair_coeff 8 77 harmonic/cut 0.2 3.2 
pair_coeff 8 43 harmonic/cut 0.2 3.2 
pair_coeff 8 60 harmonic/cut 0.2 3.2 
pair_coeff 8 73 harmonic/cut 0.2 3.2 
pair_coeff 8 83 harmonic/cut 0.2 3.2 
pair_coeff 8 55 harmonic/cut 0.2 3.2 
pair_coeff 8 56 harmonic/cut 0.2 3.2 
pair_coeff 8 46 harmonic/cut 0.2 3.2 
pair_coeff 8 47 harmonic/cut 0.2 3.2 
pair_coeff 8 79 harmonic/cut 0.2 3.2 
pair_coeff 9 37 harmonic/cut 0.2 3.2 
pair_coeff 9 38 harmonic/cut 0.2 3.2 
pair_coeff 9 39 harmonic/cut 0.2 3.2 
pair_coeff 9 40 harmonic/cut 0.2 3.2 
pair_coeff 9 41 harmonic/cut 0.2 3.2 
pair_coeff 9 42 harmonic/cut 0.2 3.2 
pair_coeff 9 25 harmonic/cut 0.2 3.2 
pair_coeff 9 26 harmonic/cut 0.2 3.2 
pair_coeff 9 27 harmonic/cut 0.2 3.2 
pair_coeff 9 28 harmonic/cut 0.2 3.2 
pair_coeff 9 29 harmonic/cut 0.2 3.2 
pair_coeff 9 30 harmonic/cut 0.2 3.2 
pair_coeff 9 50 harmonic/cut 0.2 3.2 
pair_coeff 9 59 harmonic/cut 0.2 3.2 
pair_coeff 9 82 harmonic/cut 0.2 3.2 
pair_coeff 9 84 harmonic/cut 0.2 3.2 
pair_coeff 9 85 harmonic/cut 0.2 3.2 
pair_coeff 9 86 harmonic/cut 0.2 3.2 
pair_coeff 9 32 harmonic/cut 0.2 3.2 
pair_coeff 9 33 harmonic/cut 0.2 3.2 
pair_coeff 9 34 harmonic/cut 0.2 3.2 
pair_coeff 9 35 harmonic/cut 0.2 3.2 
pair_coeff 9 36 harmonic/cut 0.2 3.2 
pair_coeff 9 45 harmonic/cut 0.2 3.2 
pair_coeff 9 61 harmonic/cut 0.2 3.2 
pair_coeff 9 62 harmonic/cut 0.2 3.2 
pair_coeff 9 64 harmonic/cut 0.2 3.2 
pair_coeff 9 65 harmonic/cut 0.2 3.2 
pair_coeff 9 68 harmonic/cut 0.2 3.2 
pair_coeff 9 69 harmonic/cut 0.2 3.2 
pair_coeff 9 70 harmonic/cut 0.2 3.2 
pair_coeff 9 72 harmonic/cut 0.2 3.2 
pair_coeff 9 49 harmonic/cut 0.2 3.2 
pair_coeff 9 58 harmonic/cut 0.2 3.2 
pair_coeff 9 67 harmonic/cut 0.2 3.2 
pair_coeff 9 75 harmonic/cut 0.2 3.2 
pair_coeff 9 78 harmonic/cut 0.2 3.2 
pair_coeff 9 48 harmonic/cut 0.2 3.2 
pair_coeff 9 54 harmonic/cut 0.2 3.2 
pair_coeff 9 57 harmonic/cut 0.2 3.2 
pair_coeff 9 81 harmonic/cut 0.2 3.2 
pair_coeff 9 88 harmonic/cut 0.2 3.2 
pair_coeff 9 52 harmonic/cut 0.2 3.2 
pair_coeff 9 66 harmonic/cut 0.2 3.2 
pair_coeff 9 80 harmonic/cut 0.2 3.2 
pair_coeff 9 87 harmonic/cut 0.2 3.2 
pair_coeff 9 51 harmonic/cut 0.2 3.2 
pair_coeff 9 53 harmonic/cut 0.2 3.2 
pair_coeff 9 77 harmonic/cut 0.2 3.2 
pair_coeff 9 43 harmonic/cut 0.2 3.2 
pair_coeff 9 60 harmonic/cut 0.2 3.2 
pair_coeff 9 73 harmonic/cut 0.2 3.2 
pair_coeff 9 83 harmonic/cut 0.2 3.2 
pair_coeff 9 55 harmonic/cut 0.2 3.2 
pair_coeff 9 56 harmonic/cut 0.2 3.2 
pair_coeff 9 46 harmonic/cut 0.2 3.2 
pair_coeff 9 47 harmonic/cut 0.2 3.2 
pair_coeff 9 79 harmonic/cut 0.2 3.2 
pair_coeff 10 37 harmonic/cut 0.2 3.2 
pair_coeff 10 38 harmonic/cut 0.2 3.2 
pair_coeff 10 39 harmonic/cut 0.2 3.2 
pair_coeff 10 40 harmonic/cut 0.2 3.2 
pair_coeff 10 41 harmonic/cut 0.2 3.2 
pair_coeff 10 25 harmonic/cut 0.2 3.2 
pair_coeff 10 26 harmonic/cut 0.2 3.2 
pair_coeff 10 27 harmonic/cut 0.2 3.2 
pair_coeff 10 28 harmonic/cut 0.2 3.2 
pair_coeff 10 29 harmonic/cut 0.2 3.2 
pair_coeff 10 50 harmonic/cut 0.2 3.2 
pair_coeff 10 59 harmonic/cut 0.2 3.2 
pair_coeff 10 82 harmonic/cut 0.2 3.2 
pair_coeff 10 84 harmonic/cut 0.2 3.2 
pair_coeff 10 85 harmonic/cut 0.2 3.2 
pair_coeff 10 86 harmonic/cut 0.2 3.2 
pair_coeff 10 31 harmonic/cut 0.2 3.2 
pair_coeff 10 32 harmonic/cut 0.2 3.2 
pair_coeff 10 34 harmonic/cut 0.2 3.2 
pair_coeff 10 35 harmonic/cut 0.2 3.2 
pair_coeff 10 36 harmonic/cut 0.2 3.2 
pair_coeff 10 45 harmonic/cut 0.2 3.2 
pair_coeff 10 61 harmonic/cut 0.2 3.2 
pair_coeff 10 62 harmonic/cut 0.2 3.2 
pair_coeff 10 63 harmonic/cut 0.2 3.2 
pair_coeff 10 65 harmonic/cut 0.2 3.2 
pair_coeff 10 68 harmonic/cut 0.2 3.2 
pair_coeff 10 70 harmonic/cut 0.2 3.2 
pair_coeff 10 71 harmonic/cut 0.2 3.2 
pair_coeff 10 72 harmonic/cut 0.2 3.2 
pair_coeff 10 49 harmonic/cut 0.2 3.2 
pair_coeff 10 58 harmonic/cut 0.2 3.2 
pair_coeff 10 67 harmonic/cut 0.2 3.2 
pair_coeff 10 75 harmonic/cut 0.2 3.2 
pair_coeff 10 78 harmonic/cut 0.2 3.2 
pair_coeff 10 48 harmonic/cut 0.2 3.2 
pair_coeff 10 54 harmonic/cut 0.2 3.2 
pair_coeff 10 57 harmonic/cut 0.2 3.2 
pair_coeff 10 81 harmonic/cut 0.2 3.2 
pair_coeff 10 88 harmonic/cut 0.2 3.2 
pair_coeff 10 44 harmonic/cut 0.2 3.2 
pair_coeff 10 74 harmonic/cut 0.2 3.2 
pair_coeff 10 76 harmonic/cut 0.2 3.2 
pair_coeff 10 66 harmonic/cut 0.2 3.2 
pair_coeff 10 80 harmonic/cut 0.2 3.2 
pair_coeff 10 87 harmonic/cut 0.2 3.2 
pair_coeff 10 51 harmonic/cut 0.2 3.2 
pair_coeff 10 53 harmonic/cut 0.2 3.2 
pair_coeff 10 77 harmonic/cut 0.2 3.2 
pair_coeff 10 43 harmonic/cut 0.2 3.2 
pair_coeff 10 60 harmonic/cut 0.2 3.2 
pair_coeff 10 73 harmonic/cut 0.2 3.2 
pair_coeff 10 83 harmonic/cut 0.2 3.2 
pair_coeff 10 55 harmonic/cut 0.2 3.2 
pair_coeff 10 56 harmonic/cut 0.2 3.2 
pair_coeff 10 46 harmonic/cut 0.2 3.2 
pair_coeff 10 47 harmonic/cut 0.2 3.2 
pair_coeff 10 79 harmonic/cut 0.2 3.2 
pair_coeff 11 37 harmonic/cut 0.2 3.2 
pair_coeff 11 38 harmonic/cut 0.2 3.2 
pair_coeff 11 39 harmonic/cut 0.2 3.2 
pair_coeff 11 40 harmonic/cut 0.2 3.2 
pair_coeff 11 41 harmonic/cut 0.2 3.2 
pair_coeff 11 42 harmonic/cut 0.2 3.2 
pair_coeff 11 25 harmonic/cut 0.2 3.2 
pair_coeff 11 26 harmonic/cut 0.2 3.2 
pair_coeff 11 27 harmonic/cut 0.2 3.2 
pair_coeff 11 28 harmonic/cut 0.2 3.2 
pair_coeff 11 29 harmonic/cut 0.2 3.2 
pair_coeff 11 30 harmonic/cut 0.2 3.2 
pair_coeff 11 50 harmonic/cut 0.2 3.2 
pair_coeff 11 59 harmonic/cut 0.2 3.2 
pair_coeff 11 82 harmonic/cut 0.2 3.2 
pair_coeff 11 84 harmonic/cut 0.2 3.2 
pair_coeff 11 85 harmonic/cut 0.2 3.2 
pair_coeff 11 86 harmonic/cut 0.2 3.2 
pair_coeff 11 31 harmonic/cut 0.2 3.2 
pair_coeff 11 33 harmonic/cut 0.2 3.2 
pair_coeff 11 34 harmonic/cut 0.2 3.2 
pair_coeff 11 35 harmonic/cut 0.2 3.2 
pair_coeff 11 36 harmonic/cut 0.2 3.2 