make_exsolution.py
1.0000000000000000
 9.550333770205121  0.000000000000000  0.000000000000000 
 0.000000000000000  9.550333770205121  0.000000000000000 
 0.000000000000000  0.000000000000000  11.650362009543718 
 Ta  P 
 16  8 
Selective dynamics
Direct
 0.000289280785257 0.500744003184706 0.250653778307121 T T T
 0.501010421535122 0.000144515654722 0.750569558496743 T T T
 0.000421445650526 0.000688646195174 0.500345235722598 T T T
 0.500017413480402 0.500649137960797 0.000046844330486 T T T
 0.000892094707992 0.000079016567876 0.860171412649575 T T T
 0.000517893726473 0.000232971103890 0.140683625414711 T T T
 0.500071848991073 0.500355429530534 0.359476006669884 T T T
 0.500928037526603 0.500843966273938 0.640722595671683 T T T
 0.227531459608558 0.227210959286578 0.000217607595706 T T T
 0.773674031507862 0.773487892300838 0.000766017101306 T T T
 0.227085900014468 0.773944467878913 0.000252839292499 T T T
 0.773565700164303 0.227005957110537 0.000615319573997 T T T
 0.726987613798490 0.726650888916769 0.500342731843216 T T T
 0.274176254702136 0.274019651863531 0.500126716667175 T T T
 0.726940519591778 0.273808017181395 0.500054826026815 T T T
 0.273879025566077 0.727252790316354 0.500441412296832 T T T
 0.270812440393504 0.770442995062627 0.250715602064920 T T T
 0.730720403714326 0.229862838957056 0.250204465175479 T T T
 0.770728453701746 0.730255113176569 0.750621173572784 T T T
 0.230211225590037 0.270765056909780 0.750016466809276 T T T
 0.271272693414986 0.229960252094018 0.250725330663391 T T T
 0.730182270086360 0.770527649511538 0.250807803036797 T T T
 0.771314744674655 0.270674253688681 0.750560120114787 T T T
 0.229905612490608 0.730149586024248 0.750006452241446 T T T
