Primitive Cell                          
   1.00000000000000     
     7.7751275316551611    0.0003793070455409    0.0025648807537894
    -0.0000597050984446    7.9644987262936668   -0.0002725765602999
     0.0915448285882910    0.0005705597611397    6.8348308740086035
   Hf   Si   O    Li
     4     4    20     8
Selective dynamics
Direct
  0.9846686483191149  0.6935221534805436  0.3430185598031557   T   T   T
  0.4846118622453162  0.6834896326279036  0.3429055631481646   T   T   T
  0.7319863753105480  0.1936547032546443  0.8528313068806881   T   T   T
  0.2320383842770397  0.1835382691750596  0.8529600351280848   T   T   T
  0.7208084775920156  0.0529956092766923  0.3373941505926723   T   T   T
  0.2207192292105731  0.3240490003195475  0.3375939530623242   T   T   T
  0.9958290440133126  0.5529926180971074  0.8583020117087727   T   T   T
  0.4958119129736502  0.8240480622569706  0.8583867845420130   T   T   T
  0.9848805596873405  0.6825321730075444  0.0457101127740671   T   T   T
  0.4846833011455374  0.6942804963424933  0.0456392475796292   T   T   T
  0.7317988709792189  0.1827010303784888  0.1500602761136776   T   T   T
  0.2319694308551874  0.1944665129488001  0.1501195264042749   T   T   T
  0.5452228177485807  0.9418205544620122  0.3426453916618115   T   T   T
  0.0450914963349760  0.4350751709141747  0.3428452832115525   T   T   T
  0.8964358353690329  0.9391342720834928  0.3525545052092980   T   T   T
  0.3964076927405600  0.4379156875925787  0.3529176682972661   T   T   T
  0.2330189839419887  0.7712066349257611  0.3781980613368532   T   T   T
  0.7330081037081015  0.6058704049822268  0.3782029892202416   T   T   T
  0.7303498337110099  0.1870399784938925  0.5253655131860313   T   T   T
  0.2302644248977543  0.1896442086771444  0.5252712424741830   T   T   T
  0.9862332655283055  0.6873028112745558  0.6704826809048043   T   T   T
  0.4862618871916595  0.6898583903367097  0.6704907196928502   T   T   T
  0.4836728318582004  0.2712781558279076  0.8174566441652544   T   T   T
  0.9836735514404040  0.1058195588944599  0.8176564200556058   T   T   T
  0.8201820265116879  0.4391177681722525  0.8428366556822624   T   T   T
  0.3201554812613736  0.9379521988709669  0.8429430144052716   T   T   T
  0.1714618907746868  0.4418571225645564  0.8529035463761545   T   T   T
  0.6714735015838826  0.9351205707466406  0.8530411137226181   T   T   T
  0.2986949776664147  0.0022154027578338  0.3180600838431502   T   T   T
  0.7987411542201031  0.3746956468163489  0.3182714962308708   T   T   T
  0.4907271012915757  0.2721038142289203  0.5388128552500646   T   T   T
  0.9907607713719528  0.1044113403896034  0.5389708188811611   T   T   T
  0.2258438872584989  0.7722650838963432  0.6571335837218939   T   T   T
  0.7257810234823694  0.6049181041481546  0.6571276557292762   T   T   T
  0.4176814203870194  0.5023261819450724  0.8774187010935961   T   T   T
  0.9177120632170173  0.8747674836876200  0.8780238432433691   T   T   T
 
  0.00000000E+00  0.00000000E+00  0.00000000E+00
  0.00000000E+00  0.00000000E+00  0.00000000E+00
  0.00000000E+00  0.00000000E+00  0.00000000E+00
  0.00000000E+00  0.00000000E+00  0.00000000E+00
  0.00000000E+00  0.00000000E+00  0.00000000E+00
  0.00000000E+00  0.00000000E+00  0.00000000E+00
  0.00000000E+00  0.00000000E+00  0.00000000E+00
  0.00000000E+00  0.00000000E+00  0.00000000E+00
  0.00000000E+00  0.00000000E+00  0.00000000E+00
  0.00000000E+00  0.00000000E+00  0.00000000E+00
  0.00000000E+00  0.00000000E+00  0.00000000E+00
  0.00000000E+00  0.00000000E+00  0.00000000E+00
  0.00000000E+00  0.00000000E+00  0.00000000E+00
  0.00000000E+00  0.00000000E+00  0.00000000E+00
  0.00000000E+00  0.00000000E+00  0.00000000E+00
  0.00000000E+00  0.00000000E+00  0.00000000E+00
  0.00000000E+00  0.00000000E+00  0.00000000E+00
  0.00000000E+00  0.00000000E+00  0.00000000E+00
  0.00000000E+00  0.00000000E+00  0.00000000E+00
  0.00000000E+00  0.00000000E+00  0.00000000E+00
  0.00000000E+00  0.00000000E+00  0.00000000E+00
  0.00000000E+00  0.00000000E+00  0.00000000E+00
  0.00000000E+00  0.00000000E+00  0.00000000E+00
  0.00000000E+00  0.00000000E+00  0.00000000E+00
  0.00000000E+00  0.00000000E+00  0.00000000E+00
  0.00000000E+00  0.00000000E+00  0.00000000E+00
  0.00000000E+00  0.00000000E+00  0.00000000E+00
  0.00000000E+00  0.00000000E+00  0.00000000E+00
  0.00000000E+00  0.00000000E+00  0.00000000E+00
  0.00000000E+00  0.00000000E+00  0.00000000E+00
  0.00000000E+00  0.00000000E+00  0.00000000E+00
  0.00000000E+00  0.00000000E+00  0.00000000E+00
  0.00000000E+00  0.00000000E+00  0.00000000E+00
  0.00000000E+00  0.00000000E+00  0.00000000E+00
  0.00000000E+00  0.00000000E+00  0.00000000E+00
  0.00000000E+00  0.00000000E+00  0.00000000E+00
