Primitive Cell                          
   1.00000000000000     
     7.8750169697660048    0.0001127791026020   -0.0124894988574277
     0.0001115951264583    8.0106200073213021    0.0001582718247183
    -3.8081953012787966    0.0001336769489763    6.7643388397015931
   Hf   Si   O    Li
     4     4    20     8
Selective dynamics
Direct
  0.6028967945667745  0.3955565064430147  0.1248619489209943   T   T   T
  0.1180047632902230  0.9095417964049091  0.1316321092983443   T   T   T
  0.6028476414098094  0.4094086656561160  0.6248668029339228   T   T   T
  0.1180448469955593  0.8957016139036114  0.6317151482904819   T   T   T
  0.1166024951769131  0.5415428036274292  0.3660735581545822   T   T   T
  0.6042934022624564  0.0415393837547384  0.3903790856954643   T   T   T
  0.1168392497313917  0.2636529378275441  0.8661512614027060   T   T   T
  0.6043237429051871  0.7635059297190310  0.8904792472415650   T   T   T
  0.0883913965613274  0.1508539277971224  0.0268220158154620   T   T   T
  0.5993133020988353  0.6529799005316548  0.0640077107022989   T   T   T
  0.1218353931204774  0.6521039855948771  0.1926987759701930   T   T   T
  0.6327834088275139  0.1542997108534507  0.2296509883320468   T   T   T
  0.4138034588902997  0.9179306889831551  0.2774246661648903   T   T   T
  0.9322384782894417  0.4050820711739505  0.2799134594863730   T   T   T
  0.0848058479938132  0.9865295338107174  0.3646934142026694   T   T   T
  0.6361314604391239  0.4862978742716493  0.3917837588252198   T   T   T
  0.7888845380863856  0.9052033742485079  0.4768769005733660   T   T   T
  0.3072189878705132  0.4179886073371364  0.4792420700071958   T   T   T
  0.0881142832386601  0.6543574381971951  0.5267855542077911   T   T   T
  0.5993872257521033  0.1521055459554859  0.5638482141403856   T   T   T
  0.1220170582040154  0.1529996696448066  0.6927865868918630   T   T   T
  0.6330337833042705  0.6506465867915452  0.7300213645629512   T   T   T
  0.4138846483856540  0.8871460227447585  0.7773334860582040   T   T   T
  0.9323708348035211  0.3999357981950311  0.7798053344800522   T   T   T
  0.0849060245042565  0.8185409954514284  0.8647378450523249   T   T   T
  0.6362336623368066  0.3184132771581716  0.8918775673996393   T   T   T
  0.7889906163052274  0.8996987558226053  0.9768337383791419   T   T   T
  0.3073335045636014  0.3871461894579724  0.9793634736417900   T   T   T
  0.9128493599804273  0.3181214497020832  0.0340459792550050   T   T   T
  0.8081290639561800  0.9867185826545963  0.2224254871343163   T   T   T
  0.5842152546381811  0.7196081785930559  0.3031990328106673   T   T   T
  0.1365691938696969  0.2197344812567152  0.4533016803005836   T   T   T
  0.9127505408218042  0.4870798240276955  0.5339888536562540   T   T   T
  0.8081674742368179  0.8180275359971887  0.7225581559892476   T   T   T
  0.5843984971250364  0.0852977739866958  0.8031807615659048   T   T   T
  0.1367547535416946  0.5854073752623563  0.9534095512480860   T   T   T
 
  0.00000000E+00  0.00000000E+00  0.00000000E+00
  0.00000000E+00  0.00000000E+00  0.00000000E+00
  0.00000000E+00  0.00000000E+00  0.00000000E+00
  0.00000000E+00  0.00000000E+00  0.00000000E+00
  0.00000000E+00  0.00000000E+00  0.00000000E+00
  0.00000000E+00  0.00000000E+00  0.00000000E+00
  0.00000000E+00  0.00000000E+00  0.00000000E+00
  0.00000000E+00  0.00000000E+00  0.00000000E+00
  0.00000000E+00  0.00000000E+00  0.00000000E+00
  0.00000000E+00  0.00000000E+00  0.00000000E+00
  0.00000000E+00  0.00000000E+00  0.00000000E+00
  0.00000000E+00  0.00000000E+00  0.00000000E+00
  0.00000000E+00  0.00000000E+00  0.00000000E+00
  0.00000000E+00  0.00000000E+00  0.00000000E+00
  0.00000000E+00  0.00000000E+00  0.00000000E+00
  0.00000000E+00  0.00000000E+00  0.00000000E+00
  0.00000000E+00  0.00000000E+00  0.00000000E+00
  0.00000000E+00  0.00000000E+00  0.00000000E+00
  0.00000000E+00  0.00000000E+00  0.00000000E+00
  0.00000000E+00  0.00000000E+00  0.00000000E+00
  0.00000000E+00  0.00000000E+00  0.00000000E+00
  0.00000000E+00  0.00000000E+00  0.00000000E+00
  0.00000000E+00  0.00000000E+00  0.00000000E+00
  0.00000000E+00  0.00000000E+00  0.00000000E+00
  0.00000000E+00  0.00000000E+00  0.00000000E+00
  0.00000000E+00  0.00000000E+00  0.00000000E+00
  0.00000000E+00  0.00000000E+00  0.00000000E+00
  0.00000000E+00  0.00000000E+00  0.00000000E+00
  0.00000000E+00  0.00000000E+00  0.00000000E+00
  0.00000000E+00  0.00000000E+00  0.00000000E+00
  0.00000000E+00  0.00000000E+00  0.00000000E+00
  0.00000000E+00  0.00000000E+00  0.00000000E+00
  0.00000000E+00  0.00000000E+00  0.00000000E+00
  0.00000000E+00  0.00000000E+00  0.00000000E+00
  0.00000000E+00  0.00000000E+00  0.00000000E+00
  0.00000000E+00  0.00000000E+00  0.00000000E+00
