Primitive Cell                          
   1.00000000000000     
    10.8868688108931497    0.0429321741232555   -0.0072560281772049
    -0.0256037976390084   10.8612316685943711   -0.0007097581297104
     0.0053066118538485    0.0017819631124546    8.4402439542143686
   Si   Nb   O    Li
    12     8    48     8
Selective dynamics
Direct
  0.1084157948668292  0.2229559462419601  0.1758437461115037   T   T   T
  0.9294585169960783  0.7815583157998134  0.1737790151827738   T   T   T
  0.5269774036634374  0.0079055439312796  0.2388502928420806   T   T   T
  0.7464046553546524  0.4143141358002751  0.3070878745007661   T   T   T
  0.3095084692643795  0.5959800690684105  0.3103458482491419   T   T   T
  0.5245191808321721  0.4980958052912712  0.4913543321418601   T   T   T
  0.6159906219605489  0.7250291043638342  0.6735145714947279   T   T   T
  0.4360327032527493  0.2829765659915680  0.6759058527128303   T   T   T
  0.0174190913947712  0.4976446787219473  0.7394233651817856   T   T   T
  0.7983489636764318  0.0912417693917220  0.8070810055601001   T   T   T
  0.2349916376128292  0.9104530481592121  0.8098754484888957   T   T   T
  0.0206557208057561  0.0079494341528559  0.9911478392207371   T   T   T
  0.4586518638947936  0.7489469015160566  0.0129969724157348   T   T   T
  0.5834714966428720  0.2699277704820773  0.0118306138577537   T   T   T
  0.7822872483848116  0.9390414603635477  0.4684721805471526   T   T   T
  0.2648532300857696  0.0514820015197088  0.4655728682631732   T   T   T
  0.0854333959107763  0.7567530277149714  0.5139006532878696   T   T   T
  0.9612864424904615  0.2361179057433134  0.5119774941281463   T   T   T
  0.7624449372343705  0.5675816147850909  0.9687227637091240   T   T   T
  0.2795430756608894  0.4542169019891915  0.9661279117981678   T   T   T
  0.8888779103117415  0.7013604169206644  0.0170272277018597   T   T   T
  0.6231804487510217  0.6522984986522076  0.0516112502531243   T   T   T
  0.1881244245092120  0.3002392117512187  0.0472708258670735   T   T   T
  0.4350271849084919  0.3573723598983420  0.0526174050512296   T   T   T
  0.0029810316512098  0.1367019611288711  0.0890494450814714   T   T   T
  0.5413230940548459  0.8810957228232184  0.1363888921200740   T   T   T
  0.0200377728109800  0.8914004550740771  0.1102966917761776   T   T   T
  0.4972950923084412  0.1266533454495260  0.1272399408059570   T   T   T
  0.8265564888296808  0.4942926301070614  0.1768281363525759   T   T   T
  0.2241619895595690  0.5240228008342740  0.1803145063932448   T   T   T
  0.6830550254286010  0.2979800184610397  0.2119235740318075   T   T   T
  0.3979928448712755  0.6975362762819159  0.2261514871156933   T   T   T
  0.2136816429069981  0.1372449197742895  0.2633965029621237   T   T   T
  0.8088036988806735  0.8414858355342858  0.2616340451117338   T   T   T
  0.0077253865635072  0.7002989926284044  0.3021768686192985   T   T   T
  0.0310937047281286  0.3057395619798271  0.3031650233443273   T   T   T
  0.6551395613946127  0.0299056610208837  0.3332282161683153   T   T   T
  0.6402172103784594  0.5124161993526286  0.3693022705097277   T   T   T
  0.4116113959580474  0.9938113260432644  0.3634887001656182   T   T   T
  0.3947687487391391  0.4913101129943485  0.3978734079299713   T   T   T
  0.8767174569041529  0.0936456032518080  0.4190200838916454   T   T   T
  0.1627690860610400  0.9107599123883077  0.4380291721825671   T   T   T
  0.2238202079319436  0.6581084813518387  0.4480184626323194   T   T   T
  0.8218863807241448  0.3646304376351068  0.4608695369978903   T   T   T
  0.6556862460202950  0.8052329808704926  0.5163692799175692   T   T   T
  0.9212180920235440  0.8537034557134646  0.5520562137049083   T   T   T
  0.3560749736444180  0.2055833234718349  0.5476776164624582   T   T   T
  0.1095281467819333  0.1481802633549094  0.5523883124461264   T   T   T
  0.5413969858630807  0.3692097753489776  0.5891991739516413   T   T   T
  0.0042513919099463  0.6239064091268745  0.6356052849091611   T   T   T
  0.5262538933631831  0.6142944555503718  0.6111370844969812   T   T   T
  0.0472707821780318  0.3785729217119922  0.6284137986844911   T   T   T
  0.7181999480578227  0.0113889065686195  0.6770118253215642   T   T   T
  0.3206863571754326  0.9815622303711180  0.6797358645923737   T   T   T
  0.8620137536226196  0.2074594092884254  0.7120485926267790   T   T   T
  0.1457700338705266  0.8088010285462488  0.7270747234962016   T   T   T
  0.3307181426040344  0.3685479234294036  0.7639448205036885   T   T   T
  0.7368990607292858  0.6665436579942181  0.7624346880902593   T   T   T
  0.5364982967434457  0.8057674016174303  0.8015535576310526   T   T   T
  0.5136008921734430  0.2002581838018926  0.8031575998087561   T   T   T
  0.8888675455213289  0.4760826310558812  0.8328761668948772   T   T   T
  0.9046186893406585  0.9926221953611432  0.8693072674154152   T   T   T
  0.1325944405579591  0.5120966218365695  0.8644396435599973   T   T   T
  0.1502336145949386  0.0157008284592663  0.8972274260373823   T   T   T
  0.6677548289290556  0.4125717335441408  0.9193741738977863   T   T   T
  0.3817908289195984  0.5951457368165478  0.9375911673471151   T   T   T
  0.3208286484853886  0.8484500707349198  0.9476961331843725   T   T   T
  0.7231093227109398  0.1410708621675667  0.9608715562274526   T   T   T
  0.0263563611479185  0.5125425252425657  0.2368946543869654   T   T   T
  0.3454889650139279  0.2144625651690930  0.1414591970060215   T   T   T
  0.7768423518482095  0.1371275224994051  0.2066309137150029   T   T   T
  0.6471154273477779  0.7463220088538947  0.2731483609004712   T   T   T
  0.5173555213191747  0.9930637478036388  0.7356512667674764   T   T   T
  0.1988232245621759  0.2899901180514703  0.6435104333087907   T   T   T
  0.7677011027292053  0.3683772978492854  0.7072149931048983   T   T   T
  0.8963027867024920  0.7662473300788051  0.7772343745827612   T   T   T
 
  0.00000000E+00  0.00000000E+00  0.00000000E+00
  0.00000000E+00  0.00000000E+00  0.00000000E+00
  0.00000000E+00  0.00000000E+00  0.00000000E+00
  0.00000000E+00  0.00000000E+00  0.00000000E+00
  0.00000000E+00  0.00000000E+00  0.00000000E+00
  0.00000000E+00  0.00000000E+00  0.00000000E+00
  0.00000000E+00  0.00000000E+00  0.00000000E+00
  0.00000000E+00  0.00000000E+00  0.00000000E+00
  0.00000000E+00  0.00000000E+00  0.00000000E+00
  0.00000000E+00  0.00000000E+00  0.00000000E+00
  0.00000000E+00  0.00000000E+00  0.00000000E+00
  0.00000000E+00  0.00000000E+00  0.00000000E+00
  0.00000000E+00  0.00000000E+00  0.00000000E+00
  0.00000000E+00  0.00000000E+00  0.00000000E+00
  0.00000000E+00  0.00000000E+00  0.00000000E+00
  0.00000000E+00  0.00000000E+00  0.00000000E+00
  0.00000000E+00  0.00000000E+00  0.00000000E+00
  0.00000000E+00  0.00000000E+00  0.00000000E+00
  0.00000000E+00  0.00000000E+00  0.00000000E+00
  0.00000000E+00  0.00000000E+00  0.00000000E+00
  0.00000000E+00  0.00000000E+00  0.00000000E+00
  0.00000000E+00  0.00000000E+00  0.00000000E+00
  0.00000000E+00  0.00000000E+00  0.00000000E+00
  0.00000000E+00  0.00000000E+00  0.00000000E+00
  0.00000000E+00  0.00000000E+00  0.00000000E+00
  0.00000000E+00  0.00000000E+00  0.00000000E+00
  0.00000000E+00  0.00000000E+00  0.00000000E+00
  0.00000000E+00  0.00000000E+00  0.00000000E+00
  0.00000000E+00  0.00000000E+00  0.00000000E+00
  0.00000000E+00  0.00000000E+00  0.00000000E+00
  0.00000000E+00  0.00000000E+00  0.00000000E+00
  0.00000000E+00  0.00000000E+00  0.00000000E+00
  0.00000000E+00  0.00000000E+00  0.00000000E+00
  0.00000000E+00  0.00000000E+00  0.00000000E+00
  0.00000000E+00  0.00000000E+00  0.00000000E+00
  0.00000000E+00  0.00000000E+00  0.00000000E+00
  0.00000000E+00  0.00000000E+00  0.00000000E+00
  0.00000000E+00  0.00000000E+00  0.00000000E+00
  0.00000000E+00  0.00000000E+00  0.00000000E+00
  0.00000000E+00  0.00000000E+00  0.00000000E+00
  0.00000000E+00  0.00000000E+00  0.00000000E+00
  0.00000000E+00  0.00000000E+00  0.00000000E+00
  0.00000000E+00  0.00000000E+00  0.00000000E+00
  0.00000000E+00  0.00000000E+00  0.00000000E+00
  0.00000000E+00  0.00000000E+00  0.00000000E+00
  0.00000000E+00  0.00000000E+00  0.00000000E+00
  0.00000000E+00  0.00000000E+00  0.00000000E+00
  0.00000000E+00  0.00000000E+00  0.00000000E+00
  0.00000000E+00  0.00000000E+00  0.00000000E+00
  0.00000000E+00  0.00000000E+00  0.00000000E+00
  0.00000000E+00  0.00000000E+00  0.00000000E+00
  0.00000000E+00  0.00000000E+00  0.00000000E+00
  0.00000000E+00  0.00000000E+00  0.00000000E+00
  0.00000000E+00  0.00000000E+00  0.00000000E+00
  0.00000000E+00  0.00000000E+00  0.00000000E+00
  0.00000000E+00  0.00000000E+00  0.00000000E+00
  0.00000000E+00  0.00000000E+00  0.00000000E+00
  0.00000000E+00  0.00000000E+00  0.00000000E+00
  0.00000000E+00  0.00000000E+00  0.00000000E+00
  0.00000000E+00  0.00000000E+00  0.00000000E+00
  0.00000000E+00  0.00000000E+00  0.00000000E+00
  0.00000000E+00  0.00000000E+00  0.00000000E+00
  0.00000000E+00  0.00000000E+00  0.00000000E+00
  0.00000000E+00  0.00000000E+00  0.00000000E+00
  0.00000000E+00  0.00000000E+00  0.00000000E+00
  0.00000000E+00  0.00000000E+00  0.00000000E+00
  0.00000000E+00  0.00000000E+00  0.00000000E+00
  0.00000000E+00  0.00000000E+00  0.00000000E+00
  0.00000000E+00  0.00000000E+00  0.00000000E+00
  0.00000000E+00  0.00000000E+00  0.00000000E+00
  0.00000000E+00  0.00000000E+00  0.00000000E+00
  0.00000000E+00  0.00000000E+00  0.00000000E+00
  0.00000000E+00  0.00000000E+00  0.00000000E+00
  0.00000000E+00  0.00000000E+00  0.00000000E+00
  0.00000000E+00  0.00000000E+00  0.00000000E+00
  0.00000000E+00  0.00000000E+00  0.00000000E+00
