Primitive Cell                          
   1.00000000000000     
     8.6288292686217254   -0.0067302037423381    0.0075048789233724
    -4.3528075604493814    7.5000876812185746    0.0141118219123689
     0.1315405727530977    0.3100519049540870   23.5028835743584885
   Si   Hf   O    Li
    18    12    72    24
Selective dynamics
Direct
  0.7957082864922337  0.7427169886940764  0.1535821068385645   T   T   T
  0.0916389437844631  0.3255329433853117  0.1541470825575719   T   T   T
  0.3819429771328313  0.0296932996386695  0.1583729335059835   T   T   T
  0.7157821133387311  0.9857551613664416  0.3209331372097016   T   T   T
  0.4181016378915269  0.4038447703376110  0.3220125810814954   T   T   T
  0.1384307064175898  0.7119568003656704  0.3271800075941111   T   T   T
  0.0498240738877071  0.3647856143289046  0.4850105250289064   T   T   T
  0.7535046090689030  0.6511685377458889  0.4893218311224279   T   T   T
  0.4741562188671383  0.0698707102374602  0.4917916718110547   T   T   T
  0.3857698477735883  0.3339624194907561  0.6474087608734279   T   T   T
  0.1061482996985059  0.7521703428488499  0.6499354587418601   T   T   T
  0.8095523724200360  0.0383770473324813  0.6540110537188090   T   T   T
  0.7217618915371025  0.6926342960956611  0.8122239549739140   T   T   T
  0.4420804471779251  0.0006755724242194  0.8172447338493158   T   T   T
  0.1436219084885016  0.4185535961709091  0.8182921446368159   T   T   T
  0.4775197501304616  0.3747832734376859  0.9809907658143978   T   T   T
  0.7682708019485852  0.0794863324940009  0.9852880700376760   T   T   T
  0.0639658352181287  0.6624460164629264  0.9856573665445847   T   T   T
  0.1028244956221187  0.0428828285758031  0.0493061310800368   T   T   T
  0.7567945647339561  0.3620841348642148  0.0901411428828971   T   T   T
  0.4194181624879472  0.6978194559219687  0.2254579386879321   T   T   T
  0.0880030984138175  0.0357345856215833  0.2516909331678030   T   T   T
  0.7585293897720744  0.3598461341016290  0.3839107259470591   T   T   T
  0.4175054208225766  0.7001742738425283  0.4287281775383592   T   T   T
  0.0964291948746216  0.0375799518428558  0.5468519582012803   T   T   T
  0.7632451880283011  0.3659071118428718  0.5923395720443094   T   T   T
  0.4420691407071188  0.7037078928492992  0.7105644434093167   T   T   T
  0.1013663989500952  0.0444723856658887  0.7552606456653310   T   T   T
  0.7715180068242724  0.3689379415864664  0.8876037810053508   T   T   T
  0.4403239971475096  0.7068241052477874  0.9140019770899943   T   T   T
  0.5810770931246163  0.3687669289982712  0.0372251627717306   T   T   T
  0.9726222171274690  0.5402744002359173  0.0429298963178930   T   T   T
  0.7476754896683903  0.1443512783510103  0.0483657726595650   T   T   T
  0.1127463268008796  0.2608220668894033  0.0910870390346910   T   T   T
  0.8863764394230560  0.8650187850971074  0.0963161725900046   T   T   T
  0.2781298204291945  0.0352656602012165  0.1021396821018671   T   T   T
  0.7084374653869645  0.5273238767265184  0.1439080704866940   T   T   T
  0.6010294001032068  0.1370184402723715  0.1483539599754868   T   T   T
  0.9573416086444994  0.4085050271750003  0.1531574664208364   T   T   T
  0.6384529149151644  0.7874839034204411  0.1722598001806304   T   T   T
  0.3134392754108298  0.8222675718959445  0.1787686952656796   T   T   T
  0.2883475104685537  0.4703376940473060  0.1789852145299647   T   T   T
  0.9899271278530318  0.1526882648874003  0.1983079028758559   T   T   T
  0.9438694260049142  0.7926957745808836  0.2054105983605808   T   T   T
  0.3424266317449718  0.1347065049097517  0.2104444119064254   T   T   T
  0.5260431520977177  0.5542211767112099  0.2712883562227016   T   T   T
  0.5664873708868801  0.9406945373790860  0.2707427838539302   T   T   T
  0.2099576002589573  0.6077687903417980  0.2862955228322405   T   T   T
  0.8624700715689988  0.9296091672222589  0.3017120592438021   T   T   T
  0.2154384160041675  0.2565691181113262  0.3022895340560960   T   T   T
  0.1856681099376703  0.9066566872730157  0.3023563300513974   T   T   T
  0.8104811149197917  0.2029568219658018  0.3278645735084326   T   T   T
  0.9191330596922657  0.5855217488269041  0.3345292439403697   T   T   T
  0.5300973313112932  0.3011552793895153  0.3373436030660234   T   T   T
  0.3906943442194892  0.4930648947178330  0.3801584560618693   T   T   T
  0.6257012554120108  0.8809039727865213  0.3808344497096571   T   T   T
  0.2346908645806161  0.7513677124989054  0.3902699288048295   T   T   T
  0.9879011432187782  0.3855435712854461  0.4214556716135953   T   T   T
  0.6994518857609240  0.5036031315575342  0.4398737154234186   T   T   T
  0.6206889110061015  0.1466531710402415  0.4405925686907223   T   T   T
  0.3078888673856695  0.1107295066020187  0.4815314584842223   T   T   T
  0.6310125610688342  0.7462095308401553  0.4835830192478309   T   T   T
  0.2711653981086965  0.4824674416790631  0.4876008239876135   T   T   T
  0.9687000486418627  0.8060250004529941  0.4904363237597932   T   T   T
  0.3795869784051401  0.8497898912597077  0.4959889967206792   T   T   T
  0.9856026834095174  0.1538679021273873  0.4978397056260637   T   T   T
  0.9670829320350659  0.4442513527064700  0.5331265076978917   T   T   T
  0.6928071262809683  0.5402792726443008  0.5511154467654902   T   T   T
  0.5757649559035171  0.1451812313033515  0.5528404122136898   T   T   T
  0.2837418604749377  0.2586417656041348  0.5863979623953017   T   T   T
  0.1668165823130541  0.8633693465915677  0.5881645056446557   T   T   T
  0.8922313205738317  0.9588786983369119  0.6059092960828809   T   T   T
  0.8741056067105740  0.2494023298203281  0.6411213282937064   T   T   T
  0.4806265671750731  0.5540855011101484  0.6433674654652901   T   T   T
  0.8909719876331721  0.5973054515333313  0.6488469167959348   T   T   T
  0.5883130294365138  0.9208895041557670  0.6515239256173281   T   T   T
  0.2288280719423305  0.6573751964680571  0.6555286710218294   T   T   T
  0.5518092689503280  0.2927379456024840  0.6576601031735093   T   T   T
  0.2394074386382396  0.2574559564417773  0.6986589484491845   T   T   T
  0.1599378684042464  0.8997685341666521  0.6994032000510252   T   T   T
  0.8723086387581418  0.0184356896537843  0.7175311123628511   T   T   T
  0.6251677060048973  0.6534590919701422  0.7491890986875490   T   T   T
  0.2333780839381482  0.5230679715794441  0.7583056864735690   T   T   T
  0.4692771469343475  0.9109512920224571  0.7591664462985873   T   T   T
  0.3300977607055923  0.1032699421579842  0.8017339531702967   T   T   T
  0.9409892070417503  0.8189054647240837  0.8047424614065947   T   T   T
  0.0493279626080473  0.2013517949418001  0.8113497975421762   T   T   T
  0.6739443572370153  0.4976083250229130  0.8368633828110859   T   T   T
  0.6447423584211005  0.1480081570505641  0.8369479116062079   T   T   T
  0.9970650093900764  0.4748177085414952  0.8375386758604966   T   T   T
  0.6506894556040543  0.7968336083790141  0.8533431804398557   T   T   T
  0.2931325509006498  0.4641518155938463  0.8684883085410203   T   T   T
  0.3341987328899375  0.8504892731048530  0.8680117602136790   T   T   T
  0.5172368607222595  0.2699577401458565  0.9288772833219594   T   T   T
  0.9161693756169965  0.6124279226183694  0.9336803973171816   T   T   T
  0.8696859970321449  0.2522077745339372  0.9410623009279778   T   T   T
  0.5715275536847545  0.9344679424772424  0.9604538191302934   T   T   T
  0.5461645898690474  0.5822441603232587  0.9606473859019272   T   T   T
  0.2211861875559517  0.6174210539652872  0.9671196602933670   T   T   T
  0.9026348151152594  0.9965179870651030  0.9861052703693438   T   T   T
  0.2584769425577142  0.2676936545052259  0.9909753210293515   T   T   T
  0.1512524484692125  0.8778081265016232  0.9953120932220493   T   T   T
  0.1670137255444571  0.4330637023641616  0.0289773349242748   T   T   T
  0.6926195604872832  0.9714203969282488  0.1102369995994045   T   T   T
  0.0545315845634632  0.6491880788928425  0.1820867634561397   T   T   T
  0.4744231525817676  0.3982422806804914  0.1890916730426639   T   T   T
  0.7627441398315910  0.1575116665013147  0.2108988607374283   T   T   T
  0.7902593049618898  0.6775198857667829  0.2842390951470334   T   T   T
  0.4393322297176653  0.0804023493206614  0.2871597818132407   T   T   T
  0.0767884409566085  0.3585443806648996  0.3320132900648815   T   T   T
  0.1545725025838569  0.8998669083972471  0.4290485095086023   T   T   T
  0.4050592264559542  0.3499843669030305  0.4443484798344471   T   T   T
  0.7666023951158578  0.0098264290769849  0.4521763570209579   T   T   T
  0.1216398064572904  0.7062717167307380  0.5235921313521928   T   T   T
  0.4257211050529878  0.5152155925031641  0.5530680379220035   T   T   T
  0.4339260256963092  0.8886996653109873  0.5861575660309022   T   T   T
  0.7382702842937973  0.6973799885233994  0.6156477925842259   T   T   T
  0.0927567846760538  0.3936522290383857  0.6869727436241102   T   T   T
  0.4536341211916164  0.0536055806025738  0.6950531278166143   T   T   T
  0.7048508378260101  0.5042032681110847  0.7102371131157587   T   T   T
  0.7828934334870372  0.0454179871247928  0.8075069221909651   T   T   T
  0.4200603193697554  0.3241417586228811  0.8520605306678419   T   T   T
  0.0700657221083238  0.7269834476648567  0.8550418309657848   T   T   T
  0.0961597336454460  0.2458680958852905  0.9284391346344378   T   T   T
  0.3853743408149402  0.0065190504222792  0.9502251709144268   T   T   T
  0.8050818810636738  0.7557071848577982  0.9570070621261414   T   T   T
 
  0.00000000E+00  0.00000000E+00  0.00000000E+00
  0.00000000E+00  0.00000000E+00  0.00000000E+00
  0.00000000E+00  0.00000000E+00  0.00000000E+00
  0.00000000E+00  0.00000000E+00  0.00000000E+00
  0.00000000E+00  0.00000000E+00  0.00000000E+00
  0.00000000E+00  0.00000000E+00  0.00000000E+00
  0.00000000E+00  0.00000000E+00  0.00000000E+00
  0.00000000E+00  0.00000000E+00  0.00000000E+00
  0.00000000E+00  0.00000000E+00  0.00000000E+00
  0.00000000E+00  0.00000000E+00  0.00000000E+00
  0.00000000E+00  0.00000000E+00  0.00000000E+00
  0.00000000E+00  0.00000000E+00  0.00000000E+00
  0.00000000E+00  0.00000000E+00  0.00000000E+00
  0.00000000E+00  0.00000000E+00  0.00000000E+00
  0.00000000E+00  0.00000000E+00  0.00000000E+00
  0.00000000E+00  0.00000000E+00  0.00000000E+00
  0.00000000E+00  0.00000000E+00  0.00000000E+00
  0.00000000E+00  0.00000000E+00  0.00000000E+00
  0.00000000E+00  0.00000000E+00  0.00000000E+00
  0.00000000E+00  0.00000000E+00  0.00000000E+00
  0.00000000E+00  0.00000000E+00  0.00000000E+00
  0.00000000E+00  0.00000000E+00  0.00000000E+00
  0.00000000E+00  0.00000000E+00  0.00000000E+00
  0.00000000E+00  0.00000000E+00  0.00000000E+00
  0.00000000E+00  0.00000000E+00  0.00000000E+00
  0.00000000E+00  0.00000000E+00  0.00000000E+00
  0.00000000E+00  0.00000000E+00  0.00000000E+00
  0.00000000E+00  0.00000000E+00  0.00000000E+00
  0.00000000E+00  0.00000000E+00  0.00000000E+00
  0.00000000E+00  0.00000000E+00  0.00000000E+00
  0.00000000E+00  0.00000000E+00  0.00000000E+00
  0.00000000E+00  0.00000000E+00  0.00000000E+00
  0.00000000E+00  0.00000000E+00  0.00000000E+00
  0.00000000E+00  0.00000000E+00  0.00000000E+00
  0.00000000E+00  0.00000000E+00  0.00000000E+00
  0.00000000E+00  0.00000000E+00  0.00000000E+00
  0.00000000E+00  0.00000000E+00  0.00000000E+00
  0.00000000E+00  0.00000000E+00  0.00000000E+00
  0.00000000E+00  0.00000000E+00  0.00000000E+00
  0.00000000E+00  0.00000000E+00  0.00000000E+00
  0.00000000E+00  0.00000000E+00  0.00000000E+00
  0.00000000E+00  0.00000000E+00  0.00000000E+00
  0.00000000E+00  0.00000000E+00  0.00000000E+00
  0.00000000E+00  0.00000000E+00  0.00000000E+00
  0.00000000E+00  0.00000000E+00  0.00000000E+00
  0.00000000E+00  0.00000000E+00  0.00000000E+00
  0.00000000E+00  0.00000000E+00  0.00000000E+00
  0.00000000E+00  0.00000000E+00  0.00000000E+00
  0.00000000E+00  0.00000000E+00  0.00000000E+00
  0.00000000E+00  0.00000000E+00  0.00000000E+00
  0.00000000E+00  0.00000000E+00  0.00000000E+00
  0.00000000E+00  0.00000000E+00  0.00000000E+00
  0.00000000E+00  0.00000000E+00  0.00000000E+00
  0.00000000E+00  0.00000000E+00  0.00000000E+00
  0.00000000E+00  0.00000000E+00  0.00000000E+00
  0.00000000E+00  0.00000000E+00  0.00000000E+00
  0.00000000E+00  0.00000000E+00  0.00000000E+00
  0.00000000E+00  0.00000000E+00  0.00000000E+00
  0.00000000E+00  0.00000000E+00  0.00000000E+00
  0.00000000E+00  0.00000000E+00  0.00000000E+00
  0.00000000E+00  0.00000000E+00  0.00000000E+00
  0.00000000E+00  0.00000000E+00  0.00000000E+00
  0.00000000E+00  0.00000000E+00  0.00000000E+00
  0.00000000E+00  0.00000000E+00  0.00000000E+00
  0.00000000E+00  0.00000000E+00  0.00000000E+00
  0.00000000E+00  0.00000000E+00  0.00000000E+00
  0.00000000E+00  0.00000000E+00  0.00000000E+00
  0.00000000E+00  0.00000000E+00  0.00000000E+00
  0.00000000E+00  0.00000000E+00  0.00000000E+00
  0.00000000E+00  0.00000000E+00  0.00000000E+00
  0.00000000E+00  0.00000000E+00  0.00000000E+00
  0.00000000E+00  0.00000000E+00  0.00000000E+00
  0.00000000E+00  0.00000000E+00  0.00000000E+00
  0.00000000E+00  0.00000000E+00  0.00000000E+00
  0.00000000E+00  0.00000000E+00  0.00000000E+00
  0.00000000E+00  0.00000000E+00  0.00000000E+00
  0.00000000E+00  0.00000000E+00  0.00000000E+00
  0.00000000E+00  0.00000000E+00  0.00000000E+00
  0.00000000E+00  0.00000000E+00  0.00000000E+00
  0.00000000E+00  0.00000000E+00  0.00000000E+00
  0.00000000E+00  0.00000000E+00  0.00000000E+00
  0.00000000E+00  0.00000000E+00  0.00000000E+00
  0.00000000E+00  0.00000000E+00  0.00000000E+00
  0.00000000E+00  0.00000000E+00  0.00000000E+00
  0.00000000E+00  0.00000000E+00  0.00000000E+00
  0.00000000E+00  0.00000000E+00  0.00000000E+00
  0.00000000E+00  0.00000000E+00  0.00000000E+00
  0.00000000E+00  0.00000000E+00  0.00000000E+00
  0.00000000E+00  0.00000000E+00  0.00000000E+00
  0.00000000E+00  0.00000000E+00  0.00000000E+00
  0.00000000E+00  0.00000000E+00  0.00000000E+00
  0.00000000E+00  0.00000000E+00  0.00000000E+00
  0.00000000E+00  0.00000000E+00  0.00000000E+00
  0.00000000E+00  0.00000000E+00  0.00000000E+00
  0.00000000E+00  0.00000000E+00  0.00000000E+00
  0.00000000E+00  0.00000000E+00  0.00000000E+00
  0.00000000E+00  0.00000000E+00  0.00000000E+00
  0.00000000E+00  0.00000000E+00  0.00000000E+00
  0.00000000E+00  0.00000000E+00  0.00000000E+00
  0.00000000E+00  0.00000000E+00  0.00000000E+00
  0.00000000E+00  0.00000000E+00  0.00000000E+00
  0.00000000E+00  0.00000000E+00  0.00000000E+00
  0.00000000E+00  0.00000000E+00  0.00000000E+00
  0.00000000E+00  0.00000000E+00  0.00000000E+00
  0.00000000E+00  0.00000000E+00  0.00000000E+00
  0.00000000E+00  0.00000000E+00  0.00000000E+00
  0.00000000E+00  0.00000000E+00  0.00000000E+00
  0.00000000E+00  0.00000000E+00  0.00000000E+00
  0.00000000E+00  0.00000000E+00  0.00000000E+00
  0.00000000E+00  0.00000000E+00  0.00000000E+00
  0.00000000E+00  0.00000000E+00  0.00000000E+00
  0.00000000E+00  0.00000000E+00  0.00000000E+00
  0.00000000E+00  0.00000000E+00  0.00000000E+00
  0.00000000E+00  0.00000000E+00  0.00000000E+00
  0.00000000E+00  0.00000000E+00  0.00000000E+00
  0.00000000E+00  0.00000000E+00  0.00000000E+00
  0.00000000E+00  0.00000000E+00  0.00000000E+00
  0.00000000E+00  0.00000000E+00  0.00000000E+00
  0.00000000E+00  0.00000000E+00  0.00000000E+00
  0.00000000E+00  0.00000000E+00  0.00000000E+00
  0.00000000E+00  0.00000000E+00  0.00000000E+00
  0.00000000E+00  0.00000000E+00  0.00000000E+00
  0.00000000E+00  0.00000000E+00  0.00000000E+00
  0.00000000E+00  0.00000000E+00  0.00000000E+00
  0.00000000E+00  0.00000000E+00  0.00000000E+00
  0.00000000E+00  0.00000000E+00  0.00000000E+00
