Primitive Cell                          
   1.00000000000000     
    11.7641392125354880    0.0003186178733134   -0.0327841931019433
     0.0001623902230515    8.1472456116799048   -0.0000456937120134
     0.0714288678931788    0.0015519340453549   11.0515088565001314
   Nb   Si   O    Li
    12     8    52    12
Selective dynamics
Direct
  0.5283779739165340  0.4021823524581478  0.1797692589044004   T   T   T
  0.0305542798135718  0.9045395938697638  0.2336841376411485   T   T   T
  0.2931260943461069  0.4413038810531589  0.4363799885079658   T   T   T
  0.7607684443387370  0.3717251848015835  0.4394163902846913   T   T   T
  0.7980701180147491  0.8716720430781209  0.4738423665727680   T   T   T
  0.2658234281709326  0.9412483132708047  0.4769961828850739   T   T   T
  0.5283251682467167  0.4046255672063737  0.6796634322720010   T   T   T
  0.0306188121716744  0.9022997997191666  0.7335217872676267   T   T   T
  0.2933420447270905  0.3654888155570575  0.9364094642897882   T   T   T
  0.7611362112675408  0.4353120320402013  0.9390872982779541   T   T   T
  0.7978055072645631  0.9352871374144271  0.9740745117185625   T   T   T
  0.2656079752697877  0.8655407938197683  0.9769651156805210   T   T   T
  0.1648045472603599  0.2649856774881059  0.2012600952543337   T   T   T
  0.8938658761206497  0.5412239105505847  0.2016946823920591   T   T   T
  0.6643551256252564  0.7655057951437172  0.2115221643608862   T   T   T
  0.3937577252531455  0.0419316486445993  0.2118777043751194   T   T   T
  0.1652431642223817  0.5419464372237783  0.7014151222954581   T   T   T
  0.8943907574262369  0.2656436274577629  0.7016090892343669   T   T   T
  0.6648400027830590  0.0412797905409263  0.7113801240083433   T   T   T
  0.3942129133357994  0.7650128130431284  0.7121453125706481   T   T   T
  0.4176784930906123  0.3962724109215969  0.0562685579931426   T   T   T
  0.9015088743822020  0.4359068780208375  0.0746218778478394   T   T   T
  0.3998906856494528  0.9300824047745664  0.0870742704443614   T   T   T
  0.9138657620306034  0.9303740381158789  0.0890856409416045   T   T   T
  0.1661122759448688  0.3837752218756378  0.0809182594444877   T   T   T
  0.6559770139558339  0.3866990561180472  0.0761766495901384   T   T   T
  0.6669562869123169  0.8915059145489863  0.0939197529295583   T   T   T
  0.1617222639401135  0.8564434705330086  0.1088573847474663   T   T   T
  0.0513373381965678  0.1471779284915300  0.1949878694975737   T   T   T
  0.5502217792975088  0.6487768812967687  0.2013983437387949   T   T   T
  0.2793110675810340  0.1534302515587598  0.2063845698222835   T   T   T
  0.7791556620477778  0.6534668362095886  0.2065186720439840   T   T   T
  0.0079479138219583  0.6579945581807465  0.2126341269256216   T   T   T
  0.5072150753653872  0.1594949599673541  0.2183446047122075   T   T   T
  0.3967140485050393  0.4499048233877474  0.3043765878755096   T   T   T
  0.8911603015999958  0.4142128005022983  0.3187527595698967   T   T   T
  0.9027382845634193  0.9213716758142709  0.3370371107196846   T   T   T
  0.3921203153456645  0.9229435064655789  0.3321126037984286   T   T   T
  0.1586804075911772  0.3762962789725037  0.3262720422728691   T   T   T
  0.6443576805214235  0.3760848988187107  0.3246585878538610   T   T   T
  0.6571449692254845  0.8707681362709465  0.3386931669398976   T   T   T
  0.1409874918681524  0.9105926910833517  0.3572755607985201   T   T   T
  0.2768449813853664  0.6663173818612336  0.4396721914453892   T   T   T
  0.7650342163976589  0.1435549169148231  0.4415400938932947   T   T   T
  0.7939014009059449  0.6435181084934953  0.4715084705730135   T   T   T
  0.2821348703840982  0.1662067332684529  0.4735358771086453   T   T   T
  0.4178950581301635  0.4109605814586956  0.5560059173195384   T   T   T
  0.9017285576684841  0.3708256659357048  0.5743402423855528   T   T   T
  0.9144566454653429  0.8758965871746582  0.5886638969965858   T   T   T
  0.4001980329800432  0.8762217087949793  0.5870706544147453   T   T   T
  0.6560946147887066  0.4216664741642546  0.5762382439804625   T   T   T
  0.1667932000436565  0.4230114933043509  0.5812290669401250   T   T   T
  0.6674933852062139  0.9143719162938098  0.5942425989668010   T   T   T
  0.1621829714208118  0.9500743822631890  0.6089778998144837   T   T   T
  0.0517583559169594  0.6596483212760518  0.6951560487148072   T   T   T
  0.5507434852923367  0.1580168890912574  0.7006040074709290   T   T   T
  0.7795561771964472  0.1536604340126217  0.7064393246449114   T   T   T
  0.2796183710427798  0.6535430482905156  0.7069036875611232   T   T   T
  0.0084931982189147  0.1488513010169754  0.7119036614560486   T   T   T
  0.5076193299512113  0.6471859319322064  0.7183619541238571   T   T   T
  0.3971001421285152  0.3567302785505220  0.8043540859482547   T   T   T
  0.8919118188440507  0.3918849032231293  0.8190550547998754   T   T   T
  0.9030756578312520  0.8865840091927737  0.8371522766946811   T   T   T
  0.3928562819253827  0.8840403917584112  0.8324196530911223   T   T   T
  0.6448995445170524  0.4304213164337511  0.8242721468266296   T   T   T
  0.1591527280607110  0.4303117403095698  0.8262908520441457   T   T   T
  0.6574803745969575  0.9359346783844416  0.8384272729527353   T   T   T
  0.1412907499109295  0.8963983361550589  0.8570404130659099   T   T   T
  0.2771159073507690  0.1405614102640129  0.9396521187653875   T   T   T
  0.7656487246575736  0.6634554843637801  0.9406660280159826   T   T   T
  0.7933763515589547  0.1634375744788414  0.9722719821322059   T   T   T
  0.2820926328110431  0.6406475522249977  0.9735557966829731   T   T   T
  0.9104948328740647  0.1960011060498985  0.1074855434753701   T   T   T
  0.1520322597118025  0.6122886271538519  0.1239842204825479   T   T   T
  0.4055881336413947  0.6946248232727257  0.2885853838748602   T   T   T
  0.6464342464362502  0.1106060578694112  0.3081518427216210   T   T   T
  0.0233509591242793  0.3847893770553625  0.4344543469172990   T   T   T
  0.5353008092896019  0.8850590307278026  0.4782727111773468   T   T   T
  0.9126849130762196  0.6106893479610065  0.6049631559192648   T   T   T
  0.1532805270645667  0.1946649480815736  0.6247783284075723   T   T   T
  0.4067152121780779  0.1125677034102353  0.7895894748539547   T   T   T
  0.6486832479552405  0.6961508026028795  0.8054980883426097   T   T   T
  0.0241163040562995  0.4185201006831392  0.9356995696968582   T   T   T
  0.5346050627132684  0.9179897300966786  0.9771376310910966   T   T   T
 
  0.00000000E+00  0.00000000E+00  0.00000000E+00
  0.00000000E+00  0.00000000E+00  0.00000000E+00
  0.00000000E+00  0.00000000E+00  0.00000000E+00
  0.00000000E+00  0.00000000E+00  0.00000000E+00
  0.00000000E+00  0.00000000E+00  0.00000000E+00
  0.00000000E+00  0.00000000E+00  0.00000000E+00
  0.00000000E+00  0.00000000E+00  0.00000000E+00
  0.00000000E+00  0.00000000E+00  0.00000000E+00
  0.00000000E+00  0.00000000E+00  0.00000000E+00
  0.00000000E+00  0.00000000E+00  0.00000000E+00
  0.00000000E+00  0.00000000E+00  0.00000000E+00
  0.00000000E+00  0.00000000E+00  0.00000000E+00
  0.00000000E+00  0.00000000E+00  0.00000000E+00
  0.00000000E+00  0.00000000E+00  0.00000000E+00
  0.00000000E+00  0.00000000E+00  0.00000000E+00
  0.00000000E+00  0.00000000E+00  0.00000000E+00
  0.00000000E+00  0.00000000E+00  0.00000000E+00
  0.00000000E+00  0.00000000E+00  0.00000000E+00
  0.00000000E+00  0.00000000E+00  0.00000000E+00
  0.00000000E+00  0.00000000E+00  0.00000000E+00
  0.00000000E+00  0.00000000E+00  0.00000000E+00
  0.00000000E+00  0.00000000E+00  0.00000000E+00
  0.00000000E+00  0.00000000E+00  0.00000000E+00
  0.00000000E+00  0.00000000E+00  0.00000000E+00
  0.00000000E+00  0.00000000E+00  0.00000000E+00
  0.00000000E+00  0.00000000E+00  0.00000000E+00
  0.00000000E+00  0.00000000E+00  0.00000000E+00
  0.00000000E+00  0.00000000E+00  0.00000000E+00
  0.00000000E+00  0.00000000E+00  0.00000000E+00
  0.00000000E+00  0.00000000E+00  0.00000000E+00
  0.00000000E+00  0.00000000E+00  0.00000000E+00
  0.00000000E+00  0.00000000E+00  0.00000000E+00
  0.00000000E+00  0.00000000E+00  0.00000000E+00
  0.00000000E+00  0.00000000E+00  0.00000000E+00
  0.00000000E+00  0.00000000E+00  0.00000000E+00
  0.00000000E+00  0.00000000E+00  0.00000000E+00
  0.00000000E+00  0.00000000E+00  0.00000000E+00
  0.00000000E+00  0.00000000E+00  0.00000000E+00
  0.00000000E+00  0.00000000E+00  0.00000000E+00
  0.00000000E+00  0.00000000E+00  0.00000000E+00
  0.00000000E+00  0.00000000E+00  0.00000000E+00
  0.00000000E+00  0.00000000E+00  0.00000000E+00
  0.00000000E+00  0.00000000E+00  0.00000000E+00
  0.00000000E+00  0.00000000E+00  0.00000000E+00
  0.00000000E+00  0.00000000E+00  0.00000000E+00
  0.00000000E+00  0.00000000E+00  0.00000000E+00
  0.00000000E+00  0.00000000E+00  0.00000000E+00
  0.00000000E+00  0.00000000E+00  0.00000000E+00
  0.00000000E+00  0.00000000E+00  0.00000000E+00
  0.00000000E+00  0.00000000E+00  0.00000000E+00
  0.00000000E+00  0.00000000E+00  0.00000000E+00
  0.00000000E+00  0.00000000E+00  0.00000000E+00
  0.00000000E+00  0.00000000E+00  0.00000000E+00
  0.00000000E+00  0.00000000E+00  0.00000000E+00
  0.00000000E+00  0.00000000E+00  0.00000000E+00
  0.00000000E+00  0.00000000E+00  0.00000000E+00
  0.00000000E+00  0.00000000E+00  0.00000000E+00
  0.00000000E+00  0.00000000E+00  0.00000000E+00
  0.00000000E+00  0.00000000E+00  0.00000000E+00
  0.00000000E+00  0.00000000E+00  0.00000000E+00
  0.00000000E+00  0.00000000E+00  0.00000000E+00
  0.00000000E+00  0.00000000E+00  0.00000000E+00
  0.00000000E+00  0.00000000E+00  0.00000000E+00
  0.00000000E+00  0.00000000E+00  0.00000000E+00
  0.00000000E+00  0.00000000E+00  0.00000000E+00
  0.00000000E+00  0.00000000E+00  0.00000000E+00
  0.00000000E+00  0.00000000E+00  0.00000000E+00
  0.00000000E+00  0.00000000E+00  0.00000000E+00
  0.00000000E+00  0.00000000E+00  0.00000000E+00
  0.00000000E+00  0.00000000E+00  0.00000000E+00
  0.00000000E+00  0.00000000E+00  0.00000000E+00
  0.00000000E+00  0.00000000E+00  0.00000000E+00
  0.00000000E+00  0.00000000E+00  0.00000000E+00
  0.00000000E+00  0.00000000E+00  0.00000000E+00
  0.00000000E+00  0.00000000E+00  0.00000000E+00
  0.00000000E+00  0.00000000E+00  0.00000000E+00
  0.00000000E+00  0.00000000E+00  0.00000000E+00
  0.00000000E+00  0.00000000E+00  0.00000000E+00
  0.00000000E+00  0.00000000E+00  0.00000000E+00
  0.00000000E+00  0.00000000E+00  0.00000000E+00
  0.00000000E+00  0.00000000E+00  0.00000000E+00
  0.00000000E+00  0.00000000E+00  0.00000000E+00
  0.00000000E+00  0.00000000E+00  0.00000000E+00
  0.00000000E+00  0.00000000E+00  0.00000000E+00
