Primitive Cell                          
   1.00000000000000     
     7.1452778128572776    0.0000312686708628    0.0026495636740507
     0.0002301591693829    8.8086939518117457   -0.0003563162746223
     0.9438109690259647   -0.0001881792921276    9.0792804732697778
   Si   Sc   O    Li
     8     4    28    12
Selective dynamics
Direct
  0.8941868608059800  0.2064194681522368  0.1136887865618437   T   T   T
  0.4075580206827865  0.6959006219436468  0.1313729715796000   T   T   T
  0.2161991604580024  0.1961875529620718  0.2889429663509841   T   T   T
  0.7295420936315399  0.7063028141190794  0.3066969764810193   T   T   T
  0.3958090575060803  0.5030768949579231  0.6126608754828793   T   T   T
  0.9132180203382255  0.0111352140833973  0.6242883479916099   T   T   T
  0.7104004164996436  0.5112923511961945  0.7960108390541900   T   T   T
  0.2278533297825521  0.0029958372550404  0.8078250716487476   T   T   T
  0.8213731712931088  0.3571611909907943  0.4596886087056768   T   T   T
  0.2984830083654328  0.8507303345787450  0.4653113355146466   T   T   T
  0.3252827087959044  0.3507629742994894  0.9549792195348266   T   T   T
  0.8022217206180061  0.8571247795878481  0.9607489118385393   T   T   T
  0.0170639148007532  0.3285158766653181  0.0042683613186736   T   T   T
  0.5059288004242430  0.8306801332179364  0.0260985952095584   T   T   T
  0.7649617856500756  0.0886316560936618  0.0284082746144800   T   T   T
  0.2951335349768036  0.5789554050362981  0.0294413065031275   T   T   T
  0.3716172819253767  0.2643031425197322  0.1617505407413329   T   T   T
  0.8598167485784028  0.7812631734927870  0.1677703066762244   T   T   T
  0.0569007131274521  0.1048649268966790  0.1987792508014719   T   T   T
  0.5668992686943268  0.6047234450835467  0.2215234058451173   T   T   T
  0.7639354845175484  0.2813412491216694  0.2525671231287281   T   T   T
  0.2522510938634230  0.7641168136270066  0.2584933922912458   T   T   T
  0.3287781280810931  0.0790410379764019  0.3906665191385268   T   T   T
  0.8589465036294949  0.5886192308329119  0.3917451039849913   T   T   T
  0.1179496562868134  0.3307801850946498  0.3943475067986354   T   T   T
  0.6068637211362845  0.8284237463383187  0.4161877931857244   T   T   T
  0.5199466761413187  0.3910332234273283  0.4968793218662599   T   T   T
  0.8047428606165425  0.1339912980500736  0.5313433966319806   T   T   T
  0.0156988507398963  0.8712515210561580  0.5327612095893193   T   T   T
  0.2623190748765159  0.6214339033168627  0.5341270461434153   T   T   T
  0.8649612439329962  0.4460774414871463  0.6665858860138302   T   T   T
  0.3540637585743732  0.8982019378703138  0.6868652247770513   T   T   T
  0.0814331345526004  0.1063983689357948  0.7091790683019101   T   T   T
  0.5420910440367965  0.6066079916411656  0.7113710721597744   T   T   T
  0.2695907162271806  0.3981251867388855  0.7335608312096649   T   T   T
  0.7585340220447354  0.9458739723272389  0.7537447632631974   T   T   T
  0.3614158947174541  0.1214591169074847  0.8862181339940347   T   T   T
  0.6080779670837458  0.3713181480328763  0.8876023711727479   T   T   T
  0.8190140722114077  0.6340256140574692  0.8891374918646842   T   T   T
  0.1037394164859856  0.8909646078195769  0.9236793092177320   T   T   T
  0.9854996124024423  0.5604357487303936  0.0346901583792796   T   T   T
  0.4816858958747371  0.0593172874390542  0.0680513480222627   T   T   T
  0.0873105114115159  0.8902391104332700  0.1541493131078163   T   T   T
  0.5365976710239404  0.3903054702118100  0.2659157278898670   T   T   T
  0.1420676751455080  0.5593025426447484  0.3523378027119312   T   T   T
  0.6375336945569370  0.0605655991634368  0.3861758498981847   T   T   T
  0.2863236559195285  0.2329971421425985  0.5616348727691823   T   T   T
  0.9823945057906051  0.6495749108413180  0.5858289797599586   T   T   T
  0.6018925138526904  0.8214851664531176  0.6408219965215136   T   T   T
  0.0215161148637280  0.3215313994359524  0.7798085282773477   T   T   T
  0.6411560574969850  0.1494998692739313  0.8342402437949968   T   T   T
  0.3371459466664884  0.7330829071096033  0.8588616926396659   T   T   T
 
  0.00000000E+00  0.00000000E+00  0.00000000E+00
  0.00000000E+00  0.00000000E+00  0.00000000E+00
  0.00000000E+00  0.00000000E+00  0.00000000E+00
  0.00000000E+00  0.00000000E+00  0.00000000E+00
  0.00000000E+00  0.00000000E+00  0.00000000E+00
  0.00000000E+00  0.00000000E+00  0.00000000E+00
  0.00000000E+00  0.00000000E+00  0.00000000E+00
  0.00000000E+00  0.00000000E+00  0.00000000E+00
  0.00000000E+00  0.00000000E+00  0.00000000E+00
  0.00000000E+00  0.00000000E+00  0.00000000E+00
  0.00000000E+00  0.00000000E+00  0.00000000E+00
  0.00000000E+00  0.00000000E+00  0.00000000E+00
  0.00000000E+00  0.00000000E+00  0.00000000E+00
  0.00000000E+00  0.00000000E+00  0.00000000E+00
  0.00000000E+00  0.00000000E+00  0.00000000E+00
  0.00000000E+00  0.00000000E+00  0.00000000E+00
  0.00000000E+00  0.00000000E+00  0.00000000E+00
  0.00000000E+00  0.00000000E+00  0.00000000E+00
  0.00000000E+00  0.00000000E+00  0.00000000E+00
  0.00000000E+00  0.00000000E+00  0.00000000E+00
  0.00000000E+00  0.00000000E+00  0.00000000E+00
  0.00000000E+00  0.00000000E+00  0.00000000E+00
  0.00000000E+00  0.00000000E+00  0.00000000E+00
  0.00000000E+00  0.00000000E+00  0.00000000E+00
  0.00000000E+00  0.00000000E+00  0.00000000E+00
  0.00000000E+00  0.00000000E+00  0.00000000E+00
  0.00000000E+00  0.00000000E+00  0.00000000E+00
  0.00000000E+00  0.00000000E+00  0.00000000E+00
  0.00000000E+00  0.00000000E+00  0.00000000E+00
  0.00000000E+00  0.00000000E+00  0.00000000E+00
  0.00000000E+00  0.00000000E+00  0.00000000E+00
  0.00000000E+00  0.00000000E+00  0.00000000E+00
  0.00000000E+00  0.00000000E+00  0.00000000E+00
  0.00000000E+00  0.00000000E+00  0.00000000E+00
  0.00000000E+00  0.00000000E+00  0.00000000E+00
  0.00000000E+00  0.00000000E+00  0.00000000E+00
  0.00000000E+00  0.00000000E+00  0.00000000E+00
  0.00000000E+00  0.00000000E+00  0.00000000E+00
  0.00000000E+00  0.00000000E+00  0.00000000E+00
  0.00000000E+00  0.00000000E+00  0.00000000E+00
  0.00000000E+00  0.00000000E+00  0.00000000E+00
  0.00000000E+00  0.00000000E+00  0.00000000E+00
  0.00000000E+00  0.00000000E+00  0.00000000E+00
  0.00000000E+00  0.00000000E+00  0.00000000E+00
  0.00000000E+00  0.00000000E+00  0.00000000E+00
  0.00000000E+00  0.00000000E+00  0.00000000E+00
  0.00000000E+00  0.00000000E+00  0.00000000E+00
  0.00000000E+00  0.00000000E+00  0.00000000E+00
  0.00000000E+00  0.00000000E+00  0.00000000E+00
  0.00000000E+00  0.00000000E+00  0.00000000E+00
  0.00000000E+00  0.00000000E+00  0.00000000E+00
  0.00000000E+00  0.00000000E+00  0.00000000E+00
