Primitive Cell                          
   1.00000000000000     
     7.1932848184980429    0.0000000000000000   -0.0032256254282315
     0.0000000000000000    8.8719333547242805    0.0000000000000000
    -1.1496889506058887    0.0000000000000000    8.9960140042742331
   Si   Hf   O    Li
     8     4    28     8
Selective dynamics
Direct
  0.7278686869150874  0.6456157362487147  0.1601406897726889   T   T   T
  0.2356610890207307  0.1522988960617440  0.1612186606767452   T   T   T
  0.4124345768442694  0.6522988960617440  0.3401285462812567   T   T   T
  0.9202269789499127  0.1456157362487147  0.3412065171853058   T   T   T
  0.7278686869150874  0.4634781708352875  0.6601406897726889   T   T   T
  0.2356610890207307  0.9567950110222512  0.6612186606767452   T   T   T
  0.4124345768442623  0.4567950110222583  0.8401285462812567   T   T   T
  0.9202269789499127  0.9634781708352875  0.8412065171853058   T   T   T
  0.3240478329325001  0.8045469535420011  0.0006736034790009   T   T   T
  0.8240478329325001  0.3045469535420011  0.0006736034790009   T   T   T
  0.8240478329325001  0.8045469535420011  0.5006736034790009   T   T   T
  0.3240478329325001  0.3045469535420011  0.5006736034790009   T   T   T
  0.6085165426360533  0.7591869084160194  0.0398941497928860   T   T   T
  0.1161166883500329  0.2832737755086043  0.0628209341037547   T   T   T
  0.3499234983697761  0.0303041500982459  0.0722973658152668   T   T   T
  0.8516502931319607  0.5240718948172045  0.0790742707991257   T   T   T
  0.2656282834576942  0.7252185281630261  0.2045022601076454   T   T   T
  0.7856188181687997  0.2394737191686431  0.2147700401988075   T   T   T
  0.0785833122667157  0.0562385994558525  0.2494101196265603   T   T   T
  0.5695123535982844  0.5562385994558525  0.2519370873314344   T   T   T
  0.8624768476962004  0.7394737191686431  0.2865771667591872   T   T   T
  0.3824673824073059  0.2252185281630261  0.2968449468503565   T   T   T
  0.7964453727330394  0.0240718948172045  0.4222729361588762   T   T   T
  0.2981721674952240  0.5303041500982459  0.4290498411427350   T   T   T
  0.5319789775149673  0.7832737755086043  0.4385262728542401   T   T   T
  0.0395791232289469  0.2591869084160194  0.4614530571651088   T   T   T
  0.6085165426360533  0.3499069986679828  0.5398941497928860   T   T   T
  0.1161166883500329  0.8258201315753979  0.5628209341037547   T   T   T
  0.3499234983697761  0.0787897569857492  0.5722973658152668   T   T   T
  0.8516502931319607  0.5850220122667977  0.5790742707991257   T   T   T
  0.2656282834576942  0.3838753789209761  0.7045022601076454   T   T   T
  0.7856188181687997  0.8696201879153591  0.7147700401988075   T   T   T
  0.0785833122667157  0.0528553076281497  0.7494101196265603   T   T   T
  0.5695123535982844  0.5528553076281497  0.7519370873314344   T   T   T
  0.8624768476962004  0.3696201879153591  0.7865771667591872   T   T   T
  0.3824673824073059  0.8838753789209761  0.7968449468503565   T   T   T
  0.7964453727330394  0.0850220122667977  0.9222729361588762   T   T   T
  0.2981721674952240  0.5787897569857492  0.9290498411427350   T   T   T
  0.5319789775149673  0.3258201315753979  0.9385262728542401   T   T   T
  0.0395791232289469  0.8499069986679828  0.9614530571651088   T   T   T
  0.1378414321416273  0.5138429850377122  0.0849863056349491   T   T   T
  0.0351976368383831  0.8492263083508789  0.1897390143675395   T   T   T
  0.6128980290266171  0.3492263083508789  0.3116081925904624   T   T   T
  0.5102542337233729  0.0138429850377122  0.4163609013230527   T   T   T
  0.1378414321416273  0.5952509220462900  0.5849863056349491   T   T   T
  0.0351976368383831  0.2598675987331234  0.6897390143675395   T   T   T
  0.6128980290266171  0.7598675987331234  0.8116081925904624   T   T   T
  0.5102542337233729  0.0952509220462900  0.9163609013230527   T   T   T
 
  0.00000000E+00  0.00000000E+00  0.00000000E+00
  0.00000000E+00  0.00000000E+00  0.00000000E+00
  0.00000000E+00  0.00000000E+00  0.00000000E+00
  0.00000000E+00  0.00000000E+00  0.00000000E+00
  0.00000000E+00  0.00000000E+00  0.00000000E+00
  0.00000000E+00  0.00000000E+00  0.00000000E+00
  0.00000000E+00  0.00000000E+00  0.00000000E+00
  0.00000000E+00  0.00000000E+00  0.00000000E+00
  0.00000000E+00  0.00000000E+00  0.00000000E+00
  0.00000000E+00  0.00000000E+00  0.00000000E+00
  0.00000000E+00  0.00000000E+00  0.00000000E+00
  0.00000000E+00  0.00000000E+00  0.00000000E+00
  0.00000000E+00  0.00000000E+00  0.00000000E+00
  0.00000000E+00  0.00000000E+00  0.00000000E+00
  0.00000000E+00  0.00000000E+00  0.00000000E+00
  0.00000000E+00  0.00000000E+00  0.00000000E+00
  0.00000000E+00  0.00000000E+00  0.00000000E+00
  0.00000000E+00  0.00000000E+00  0.00000000E+00
  0.00000000E+00  0.00000000E+00  0.00000000E+00
  0.00000000E+00  0.00000000E+00  0.00000000E+00
  0.00000000E+00  0.00000000E+00  0.00000000E+00
  0.00000000E+00  0.00000000E+00  0.00000000E+00
  0.00000000E+00  0.00000000E+00  0.00000000E+00
  0.00000000E+00  0.00000000E+00  0.00000000E+00
  0.00000000E+00  0.00000000E+00  0.00000000E+00
  0.00000000E+00  0.00000000E+00  0.00000000E+00
  0.00000000E+00  0.00000000E+00  0.00000000E+00
  0.00000000E+00  0.00000000E+00  0.00000000E+00
  0.00000000E+00  0.00000000E+00  0.00000000E+00
  0.00000000E+00  0.00000000E+00  0.00000000E+00
  0.00000000E+00  0.00000000E+00  0.00000000E+00
  0.00000000E+00  0.00000000E+00  0.00000000E+00
  0.00000000E+00  0.00000000E+00  0.00000000E+00
  0.00000000E+00  0.00000000E+00  0.00000000E+00
  0.00000000E+00  0.00000000E+00  0.00000000E+00
  0.00000000E+00  0.00000000E+00  0.00000000E+00
  0.00000000E+00  0.00000000E+00  0.00000000E+00
  0.00000000E+00  0.00000000E+00  0.00000000E+00
  0.00000000E+00  0.00000000E+00  0.00000000E+00
  0.00000000E+00  0.00000000E+00  0.00000000E+00
  0.00000000E+00  0.00000000E+00  0.00000000E+00
  0.00000000E+00  0.00000000E+00  0.00000000E+00
  0.00000000E+00  0.00000000E+00  0.00000000E+00
  0.00000000E+00  0.00000000E+00  0.00000000E+00
  0.00000000E+00  0.00000000E+00  0.00000000E+00
  0.00000000E+00  0.00000000E+00  0.00000000E+00
  0.00000000E+00  0.00000000E+00  0.00000000E+00
  0.00000000E+00  0.00000000E+00  0.00000000E+00
