Primitive Cell                          
   1.00000000000000     
     9.9274103344086111    0.0185362554672596    0.0270163227171709
    -0.0273730197227166   11.7786535289682259    0.0149786156175187
     0.0282328817330077   -0.0931400601781942   10.9373603175019962
   Nb   P    O    Li
    16     8    64     8
Selective dynamics
Direct
  0.4832735637209424  0.4362928909531192  0.0730747117697277   T   T   T
  0.9932541029622399  0.9332658022820794  0.0770983650379193   T   T   T
  0.4762536235539727  0.7872994235165507  0.3115935875451399   T   T   T
  0.7350766443004275  0.5525146279238484  0.3125849555550175   T   T   T
  0.7430787002421937  0.0311222585321076  0.3216564381029983   T   T   T
  0.9751552875718090  0.2907531720510761  0.3191383323575607   T   T   T
  0.2387524864322117  0.0524685950266246  0.3259654364308986   T   T   T
  0.2483806246541604  0.5335098438182868  0.3372168633597070   T   T   T
  0.0069098056130912  0.9439681422638131  0.5638977312827862   T   T   T
  0.5099892469552643  0.4402658345328163  0.5721768346203646   T   T   T
  0.4970939673876913  0.0833404937547968  0.8085477556376901   T   T   T
  0.7575119352278676  0.8486500669366563  0.8053743818525803   T   T   T
  0.9952179168629200  0.5854638734622455  0.8072882150437763   T   T   T
  0.2525665998619004  0.3458589096679603  0.8071924714066085   T   T   T
  0.2346413946598034  0.8377400712519361  0.8236958722803607   T   T   T
  0.7361966447364878  0.3366873153337622  0.8373760462520750   T   T   T
  0.4993006800490107  0.7304585893805253  0.0090555870150624   T   T   T
  0.9942126154673545  0.2275444432251916  0.0104991742195466   T   T   T
  0.9943800742623452  0.6404022648987819  0.1136603632772903   T   T   T
  0.4908450564227991  0.1450242393999090  0.1227128948904053   T   T   T
  0.4996349719536326  0.1523709895078227  0.5064507493949648   T   T   T
  0.9950699121507327  0.6519955530505044  0.5089394657158905   T   T   T
  0.4931314764722288  0.7354712065137718  0.6244812842666647   T   T   T
  0.9907997083668008  0.2354192057017670  0.6306009095720739   T   T   T
  0.4419466078171226  0.6066525648524177  0.0124619407090591   T   T   T
  0.4291706248158818  0.0890102876170999  0.0059771617173183   T   T   T
  0.9398266961067776  0.1050037369643491  0.0230193411062274   T   T   T
  0.5241460015076314  0.2736391991441920  0.1027609910554332   T   T   T
  0.0285651664321307  0.7709726336017866  0.1118340888949234   T   T   T
  0.1264994099871473  0.5740910750811281  0.1294416608162834   T   T   T
  0.0401701802507972  0.2798385003479922  0.1349467980261139   T   T   T
  0.5494951084496336  0.7676130077012360  0.1374895381840773   T   T   T
  0.6237585931939336  0.0842875376336849  0.1542340235000665   T   T   T
  0.1419416469023176  0.9998919815554004  0.1794973014885954   T   T   T
  0.6296673541705431  0.5093935559421823  0.1805667470506194   T   T   T
  0.8540532376104579  0.9517743160498782  0.1935348818837923   T   T   T
  0.3612283657560553  0.4526296874211084  0.2040681418354424   T   T   T
  0.8913189275427555  0.6239898875163021  0.2176813461549045   T   T   T
  0.3816310803720739  0.1390884336423710  0.2225173772748334   T   T   T
  0.3633019594052769  0.9059153712410648  0.2717041391097723   T   T   T
  0.3542378014992735  0.6666240322481443  0.2820262364557777   T   T   T
  0.8591743822194786  0.1693080811731562  0.2869316394329644   T   T   T
  0.8522194510799892  0.4062551194509751  0.3058091410493375   T   T   T
  0.1282238467402053  0.4105651336383644  0.3156949472016493   T   T   T
  0.6249756604474754  0.9087280570872807  0.3454605136182920   T   T   T
  0.6576068771654207  0.6903673970030724  0.3612283131827780   T   T   T
  0.1378726561136858  0.1785914499701491  0.3576398967669050   T   T   T
  0.6214297317371162  0.1401510143863760  0.4197266556029575   T   T   T
  0.1120215217744018  0.6401663632586434  0.4161428170593737   T   T   T
  0.1413227148816745  0.9526497567661920  0.4410433674013277   T   T   T
  0.8529819940666101  0.9835473878078673  0.4521578742217827   T   T   T
  0.6386067288592017  0.4647570395829490  0.4453967016863487   T   T   T
  0.3782136997579357  0.0819392964506704  0.4654509533004898   T   T   T
  0.3467963334146020  0.4900780948930432  0.4689415201100786   T   T   T
  0.8754820170012536  0.5745974264143499  0.4796026042488606   T   T   T
  0.4446825509181238  0.7744885221322235  0.4969479315730894   T   T   T
  0.9471459161985294  0.2948997137555125  0.5099322492954670   T   T   T
  0.9464906624623950  0.7775933002402624  0.5124869266531888   T   T   T
  0.4625448825704481  0.2794012629389400  0.5180976746879438   T   T   T
  0.0265291803100212  0.1082561112583988  0.6086248429531764   T   T   T
  0.5259920312829536  0.6065999419307744  0.6237073382397753   T   T   T
  0.5442716957438520  0.1084499302307407  0.6350399750261246   T   T   T
  0.0526904559393344  0.6170134969771439  0.6358696787653599   T   T   T
  0.6244108371387824  0.8016176370621366  0.6545563341870420   T   T   T
  0.1194945939409635  0.2953653077462803  0.6765190684782709   T   T   T
  0.6447986065201050  0.3841188303087861  0.6805955892386280   T   T   T
  0.1237919016358120  0.8808076262951658  0.6884734094098945   T   T   T
  0.8512175668235713  0.9316272556711240  0.6909363346399644   T   T   T
  0.3626821589629898  0.4287858188032345  0.7071321104542463   T   T   T
  0.8730559969738891  0.2452366135753081  0.7198230643534202   T   T   T
  0.3799724545212300  0.7580808361420424  0.7181158059802897   T   T   T
  0.8602202146210942  0.4796679935266681  0.7785323592618951   T   T   T
  0.3545516431207076  0.9839440126970160  0.7916602153785703   T   T   T
  0.8532022175968450  0.7105678916428175  0.7921284555205901   T   T   T
  0.3581772927736750  0.2116603894856226  0.8103156314460733   T   T   T
  0.6289367008982367  0.9761569138536004  0.8601421030396921   T   T   T
  0.1262715256317293  0.4765063977694410  0.8555799660177001   T   T   T
  0.1483613493789733  0.7027375759249068  0.8680607903914392   T   T   T
  0.6373415840972996  0.2069941984267132  0.8670945462721633   T   T   T
  0.6198920494085982  0.7335238263307957  0.9197230139705894   T   T   T
  0.1182619584201703  0.2283298745627533  0.9258221089777336   T   T   T
  0.6397146645322707  0.4403266856672872  0.9394553358119708   T   T   T
  0.8639293027913482  0.8983899686366144  0.9479792301259451   T   T   T
  0.1545414527468623  0.9371116499950318  0.9468983202330534   T   T   T
  0.8791664582090704  0.3044509797434571  0.9642810770728474   T   T   T
  0.3344820907183959  0.3996708612355633  0.9680625817390052   T   T   T
  0.3823801454448201  0.8103290070463558  0.9729357996340582   T   T   T
  0.9249130196145217  0.6051418933058983  0.9919721980240013   T   T   T
  0.7401234914224375  0.0476288270701133  0.0022752763087937   T   T   T
  0.3152298432727179  0.9333805102797967  0.0841388464888126   T   T   T
  0.1778098761113043  0.4012056471539722  0.1252922063439570   T   T   T
  0.7364055763259572  0.8141422207487850  0.4785575159065871   T   T   T
  0.8137616990722023  0.4324586097995748  0.5644083335974344   T   T   T
  0.2316746721278378  0.0944257902966399  0.9063101219597911   T   T   T
  0.7313838146947589  0.5951982308128976  0.9192403029534191   T   T   T
  0.2449203279095187  0.5833328436902008  0.9704766794005124   T   T   T
 
  0.00000000E+00  0.00000000E+00  0.00000000E+00
  0.00000000E+00  0.00000000E+00  0.00000000E+00
  0.00000000E+00  0.00000000E+00  0.00000000E+00
  0.00000000E+00  0.00000000E+00  0.00000000E+00
  0.00000000E+00  0.00000000E+00  0.00000000E+00
  0.00000000E+00  0.00000000E+00  0.00000000E+00
  0.00000000E+00  0.00000000E+00  0.00000000E+00
  0.00000000E+00  0.00000000E+00  0.00000000E+00
  0.00000000E+00  0.00000000E+00  0.00000000E+00
  0.00000000E+00  0.00000000E+00  0.00000000E+00
  0.00000000E+00  0.00000000E+00  0.00000000E+00
  0.00000000E+00  0.00000000E+00  0.00000000E+00
  0.00000000E+00  0.00000000E+00  0.00000000E+00
  0.00000000E+00  0.00000000E+00  0.00000000E+00
  0.00000000E+00  0.00000000E+00  0.00000000E+00
  0.00000000E+00  0.00000000E+00  0.00000000E+00
  0.00000000E+00  0.00000000E+00  0.00000000E+00
  0.00000000E+00  0.00000000E+00  0.00000000E+00
  0.00000000E+00  0.00000000E+00  0.00000000E+00
  0.00000000E+00  0.00000000E+00  0.00000000E+00
  0.00000000E+00  0.00000000E+00  0.00000000E+00
  0.00000000E+00  0.00000000E+00  0.00000000E+00
  0.00000000E+00  0.00000000E+00  0.00000000E+00
  0.00000000E+00  0.00000000E+00  0.00000000E+00
  0.00000000E+00  0.00000000E+00  0.00000000E+00
  0.00000000E+00  0.00000000E+00  0.00000000E+00
  0.00000000E+00  0.00000000E+00  0.00000000E+00
  0.00000000E+00  0.00000000E+00  0.00000000E+00
  0.00000000E+00  0.00000000E+00  0.00000000E+00
  0.00000000E+00  0.00000000E+00  0.00000000E+00
  0.00000000E+00  0.00000000E+00  0.00000000E+00
  0.00000000E+00  0.00000000E+00  0.00000000E+00
  0.00000000E+00  0.00000000E+00  0.00000000E+00
  0.00000000E+00  0.00000000E+00  0.00000000E+00
  0.00000000E+00  0.00000000E+00  0.00000000E+00
  0.00000000E+00  0.00000000E+00  0.00000000E+00
  0.00000000E+00  0.00000000E+00  0.00000000E+00
  0.00000000E+00  0.00000000E+00  0.00000000E+00
  0.00000000E+00  0.00000000E+00  0.00000000E+00
  0.00000000E+00  0.00000000E+00  0.00000000E+00
  0.00000000E+00  0.00000000E+00  0.00000000E+00
  0.00000000E+00  0.00000000E+00  0.00000000E+00
  0.00000000E+00  0.00000000E+00  0.00000000E+00
  0.00000000E+00  0.00000000E+00  0.00000000E+00
  0.00000000E+00  0.00000000E+00  0.00000000E+00
  0.00000000E+00  0.00000000E+00  0.00000000E+00
  0.00000000E+00  0.00000000E+00  0.00000000E+00
  0.00000000E+00  0.00000000E+00  0.00000000E+00
  0.00000000E+00  0.00000000E+00  0.00000000E+00
  0.00000000E+00  0.00000000E+00  0.00000000E+00
  0.00000000E+00  0.00000000E+00  0.00000000E+00
  0.00000000E+00  0.00000000E+00  0.00000000E+00
  0.00000000E+00  0.00000000E+00  0.00000000E+00
  0.00000000E+00  0.00000000E+00  0.00000000E+00
  0.00000000E+00  0.00000000E+00  0.00000000E+00
  0.00000000E+00  0.00000000E+00  0.00000000E+00
  0.00000000E+00  0.00000000E+00  0.00000000E+00
  0.00000000E+00  0.00000000E+00  0.00000000E+00
  0.00000000E+00  0.00000000E+00  0.00000000E+00
  0.00000000E+00  0.00000000E+00  0.00000000E+00
  0.00000000E+00  0.00000000E+00  0.00000000E+00
  0.00000000E+00  0.00000000E+00  0.00000000E+00
  0.00000000E+00  0.00000000E+00  0.00000000E+00
  0.00000000E+00  0.00000000E+00  0.00000000E+00
  0.00000000E+00  0.00000000E+00  0.00000000E+00
  0.00000000E+00  0.00000000E+00  0.00000000E+00
  0.00000000E+00  0.00000000E+00  0.00000000E+00
  0.00000000E+00  0.00000000E+00  0.00000000E+00
  0.00000000E+00  0.00000000E+00  0.00000000E+00
  0.00000000E+00  0.00000000E+00  0.00000000E+00
  0.00000000E+00  0.00000000E+00  0.00000000E+00
  0.00000000E+00  0.00000000E+00  0.00000000E+00
  0.00000000E+00  0.00000000E+00  0.00000000E+00
  0.00000000E+00  0.00000000E+00  0.00000000E+00
  0.00000000E+00  0.00000000E+00  0.00000000E+00
  0.00000000E+00  0.00000000E+00  0.00000000E+00
  0.00000000E+00  0.00000000E+00  0.00000000E+00
  0.00000000E+00  0.00000000E+00  0.00000000E+00
  0.00000000E+00  0.00000000E+00  0.00000000E+00
  0.00000000E+00  0.00000000E+00  0.00000000E+00
  0.00000000E+00  0.00000000E+00  0.00000000E+00
  0.00000000E+00  0.00000000E+00  0.00000000E+00
  0.00000000E+00  0.00000000E+00  0.00000000E+00
  0.00000000E+00  0.00000000E+00  0.00000000E+00
  0.00000000E+00  0.00000000E+00  0.00000000E+00
  0.00000000E+00  0.00000000E+00  0.00000000E+00
  0.00000000E+00  0.00000000E+00  0.00000000E+00
  0.00000000E+00  0.00000000E+00  0.00000000E+00
  0.00000000E+00  0.00000000E+00  0.00000000E+00
  0.00000000E+00  0.00000000E+00  0.00000000E+00
  0.00000000E+00  0.00000000E+00  0.00000000E+00
  0.00000000E+00  0.00000000E+00  0.00000000E+00
  0.00000000E+00  0.00000000E+00  0.00000000E+00
  0.00000000E+00  0.00000000E+00  0.00000000E+00
  0.00000000E+00  0.00000000E+00  0.00000000E+00
  0.00000000E+00  0.00000000E+00  0.00000000E+00
