Primitive Cell                          
   1.00000000000000     
     7.2163186751300232    0.0001307912292978   -0.0172773323996653
     0.0004093334577428    8.9471814444469064   -0.0002990010797457
     1.0685376112033595   -0.0003603637824982    9.0487757339608397
   Si   Zr   O    Li
     8     4    28     8
Selective dynamics
Direct
  0.9360764262835843  0.1021044613509545  0.1295557707352657   T   T   T
  0.4276904996950606  0.6089983242452348  0.1313755763492352   T   T   T
  0.2525974047490038  0.1090553108004926  0.3118000688630502   T   T   T
  0.7442900927203482  0.6021318322027085  0.3134839247185681   T   T   T
  0.9357958884308673  0.9151743619414106  0.6294783161199788   T   T   T
  0.4275898433834229  0.4084244986052781  0.6312832157645047   T   T   T
  0.2523841370519762  0.9083397601387304  0.8118143612017761   T   T   T
  0.7442874518314113  0.4150887571940700  0.8133461569513827   T   T   T
  0.8400454081643574  0.2586800629482013  0.4715053324656893   T   T   T
  0.3400177019967003  0.7586326926022195  0.4715802030546499   T   T   T
  0.3400852238715402  0.2587465744099262  0.9715031879183798   T   T   T
  0.8400519497367682  0.7587200503528138  0.9714669233152478   T   T   T
  0.0531771223011290  0.2129872471810685  0.0086527596746393   T   T   T
  0.5450551940362658  0.7389747995113893  0.0336087718324194   T   T   T
  0.3149819363632815  0.4869109787955281  0.0423750266011780   T   T   T
  0.8123650051382043  0.9800940524331452  0.0498294852083276   T   T   T
  0.3994358520536210  0.1806798018673703  0.1783701263414486   T   T   T
  0.8773673831853870  0.6964067934180491  0.1896085231241855   T   T   T
  0.5856792435846643  0.5148487096973184  0.2203149409354666   T   T   T
  0.0945688492396215  0.0148414480275960  0.2228888720138116   T   T   T
  0.8027229882182780  0.1962708162834801  0.2534189093301151   T   T   T
  0.2807907698233336  0.6808171898025677  0.2645687627650446   T   T   T
  0.8677132040900659  0.4802209670886981  0.3934527692944840   T   T   T
  0.3652429525052838  0.9869366769124142  0.4009324922252375   T   T   T
  0.1350314395646777  0.2390786647542740  0.4094564975941992   T   T   T
  0.6269186494370871  0.7130269967335607  0.4343972514836594   T   T   T
  0.0530120064749795  0.8043056924538874  0.5086057519041276   T   T   T
  0.5450072401040984  0.2783831275266024  0.5335411907623495   T   T   T
  0.3148001530540938  0.5303835738292904  0.5420553902915302   T   T   T
  0.8123735790469908  0.0373090950258117  0.5498900053261124   T   T   T
  0.3993124012205129  0.8363743958893934  0.6785915409002286   T   T   T
  0.8774671665032798  0.3209456506939574  0.6894955190913166   T   T   T
  0.5856088373139841  0.5024488593627154  0.7201950517954643   T   T   T
  0.0944228726835732  0.0023044277595119  0.7227689668290793   T   T   T
  0.8026859740167751  0.8209625213402276  0.7534088279665099   T   T   T
  0.2807735527594417  0.3365478353910092  0.7645121992558046   T   T   T
  0.8676568267627900  0.5371056022217644  0.8932622967543935   T   T   T
  0.3650565548708684  0.0303106291539663  0.9009440648206350   T   T   T
  0.1349191213272434  0.7783988775461026  0.9096849708418517   T   T   T
  0.6269189419935088  0.3043589347433624  0.9342795395702268   T   T   T
  0.5262178475638208  0.9685721239329226  0.0581212869932060   T   T   T
  0.6287539758244165  0.3085086380995179  0.1609933577164639   T   T   T
  0.0514898286159422  0.8084278802849951  0.2818759127846846   T   T   T
  0.1538350573226879  0.4684334702848787  0.3849586033242858   T   T   T
  0.5262531847173193  0.0488888556359299  0.5580806159769338   T   T   T
  0.6286493405676410  0.7088344027483231  0.6610548278211894   T   T   T
  0.0514978269264361  0.2087678381569873  0.7818152149035598   T   T   T
  0.1537697254866615  0.5489700440863601  0.8851798855940913   T   T   T
 
  0.00000000E+00  0.00000000E+00  0.00000000E+00
  0.00000000E+00  0.00000000E+00  0.00000000E+00
  0.00000000E+00  0.00000000E+00  0.00000000E+00
  0.00000000E+00  0.00000000E+00  0.00000000E+00
  0.00000000E+00  0.00000000E+00  0.00000000E+00
  0.00000000E+00  0.00000000E+00  0.00000000E+00
  0.00000000E+00  0.00000000E+00  0.00000000E+00
  0.00000000E+00  0.00000000E+00  0.00000000E+00
  0.00000000E+00  0.00000000E+00  0.00000000E+00
  0.00000000E+00  0.00000000E+00  0.00000000E+00
  0.00000000E+00  0.00000000E+00  0.00000000E+00
  0.00000000E+00  0.00000000E+00  0.00000000E+00
  0.00000000E+00  0.00000000E+00  0.00000000E+00
  0.00000000E+00  0.00000000E+00  0.00000000E+00
  0.00000000E+00  0.00000000E+00  0.00000000E+00
  0.00000000E+00  0.00000000E+00  0.00000000E+00
  0.00000000E+00  0.00000000E+00  0.00000000E+00
  0.00000000E+00  0.00000000E+00  0.00000000E+00
  0.00000000E+00  0.00000000E+00  0.00000000E+00
  0.00000000E+00  0.00000000E+00  0.00000000E+00
  0.00000000E+00  0.00000000E+00  0.00000000E+00
  0.00000000E+00  0.00000000E+00  0.00000000E+00
  0.00000000E+00  0.00000000E+00  0.00000000E+00
  0.00000000E+00  0.00000000E+00  0.00000000E+00
  0.00000000E+00  0.00000000E+00  0.00000000E+00
  0.00000000E+00  0.00000000E+00  0.00000000E+00
  0.00000000E+00  0.00000000E+00  0.00000000E+00
  0.00000000E+00  0.00000000E+00  0.00000000E+00
  0.00000000E+00  0.00000000E+00  0.00000000E+00
  0.00000000E+00  0.00000000E+00  0.00000000E+00
  0.00000000E+00  0.00000000E+00  0.00000000E+00
  0.00000000E+00  0.00000000E+00  0.00000000E+00
  0.00000000E+00  0.00000000E+00  0.00000000E+00
  0.00000000E+00  0.00000000E+00  0.00000000E+00
  0.00000000E+00  0.00000000E+00  0.00000000E+00
  0.00000000E+00  0.00000000E+00  0.00000000E+00
  0.00000000E+00  0.00000000E+00  0.00000000E+00
  0.00000000E+00  0.00000000E+00  0.00000000E+00
  0.00000000E+00  0.00000000E+00  0.00000000E+00
  0.00000000E+00  0.00000000E+00  0.00000000E+00
  0.00000000E+00  0.00000000E+00  0.00000000E+00
  0.00000000E+00  0.00000000E+00  0.00000000E+00
  0.00000000E+00  0.00000000E+00  0.00000000E+00
  0.00000000E+00  0.00000000E+00  0.00000000E+00
  0.00000000E+00  0.00000000E+00  0.00000000E+00
  0.00000000E+00  0.00000000E+00  0.00000000E+00
  0.00000000E+00  0.00000000E+00  0.00000000E+00
  0.00000000E+00  0.00000000E+00  0.00000000E+00
