(Converted from LAMMPS) LAMMPS data file via write_data, version 7 Feb 2024, timestep = 2371, units = metal
 1.0
     5.71987739      0.00000000      0.00000000 
     0.00136463     16.33457541      0.00000000 
    -0.10868970     -0.13687947      9.56559665 
S Mg O
 12 8 48
Cartesian
     0.62659949      8.36832832      8.77714436 
     2.93174680      1.12395860      5.27852575 
     5.38730105      7.96643445      4.54163087 
     2.72138991     15.27546561      0.30900538 
     3.71903414      5.58233936      4.00807751 
     5.82447334      3.89442796      0.47379366 
     2.36947928      5.62654431      1.35049623 
     0.54130636      2.13208383      6.71707103 
     1.59193534     11.22162657      5.11947089 
     0.42641023     13.38420648      0.23645685 
     3.97930455     11.61952956      8.36632393 
     4.99454138     12.89137606      4.26395838 
     5.82135727      0.45389830      0.11173169 
     2.34396236      8.06211115      5.87638857 
     0.26400195     16.25487434      4.08838820 
     3.62600018      8.25358366      9.24192908 
     0.18681978     10.42341771      2.08320027 
     2.65396782     14.19661284      6.50966071 
     5.36686440      5.51763446      7.02640478 
     3.38726390      1.93634291      1.92027969 
     1.79690890      8.23662722      0.21943499 
     2.99379858      6.78388761      0.65146867 
     3.85941388     10.23038693      8.89833674 
     4.28982842      9.57915235      1.21462531 
     4.07791170      6.64442632      8.10284395 
     3.77276709      8.47480146      7.24197412 
     3.93381942     15.71739289      9.50284567 
     2.64170537     14.87839702      8.40839086 
     2.77811792      0.17451470      1.14350696 
     1.67402984     14.20776001      0.27926981 
     0.17511111      3.57353800      6.82624234 
     5.55273390      4.48840861      8.75211707 
     0.35381575      7.04794281      8.13965427 
     5.43823121      7.07654175      5.73933209 
     4.29391442      5.24576107      5.33972448 
     0.46609705     12.17974246      1.11551414 
     5.61498800     14.77510493      0.14468140 
     5.00009115     12.45812374      9.07003961 
     5.05070058     11.92158521      3.13434863 
     5.40608606     14.32280645      4.20899418 
     0.45095987     12.12555096      4.77694685 
     4.07801346     13.39007048      5.32651216 
     4.20626498      0.46128154      4.88460225 
     2.75888099     16.12336691      5.91930068 
     2.92035963      1.46402694      3.82730485 
     1.83680443      1.73224924      6.09130899 
     5.55662617      9.02729657      3.50650214 
     0.48213350      9.45408883      0.33479451 
     1.29364694     10.71304256      3.75004172 
     0.33707818      2.46387841      0.12141801 
     1.23788940      4.74823692      0.93522599 
     4.62721588      3.34530913      1.17147709 
     3.56342961     12.92884963      7.78944701 
     2.20246216     12.32315833      5.91278338 
     1.22722577     14.97531666      5.31551206 
     5.37590110      1.65250972      1.67433470 
     0.21308795     16.26409056      2.06553351 
     0.30764829      1.34652012      7.96365943 
     0.08579098      1.20570579      5.64057991 
     4.78120982      1.29470249      3.23157151 
     3.13813017     11.13173768      7.23344340 
     4.23696675      8.49975375      5.32329005 
     2.76382555      6.39624501      4.81281882 
     2.46564576      8.39375704      3.88789213 
     1.18952519      8.64720052      7.42606105 
     2.08235604      3.04934826      2.98411230 
     3.03994897      5.63566655      2.68176195 
     4.54567427      6.82622169      4.06796171 
