pair_coeff 1 32 lj/cut 3.0 1.3274390900291055 6.0
pair_coeff 1 55 lj/cut 3.0 1.3274390900291055 6.0
pair_coeff 1 59 lj/cut 3.0 1.3274390900291055 6.0
pair_coeff 1 60 lj/cut 3.0 1.3274390900291055 6.0
pair_coeff 2 21 lj/cut 3.0 1.3274390900291055 6.0
pair_coeff 2 46 lj/cut 3.0 1.3274390900291055 6.0
pair_coeff 2 47 lj/cut 3.0 1.3274390900291055 6.0
pair_coeff 2 48 lj/cut 3.0 1.3274390900291055 6.0
pair_coeff 3 31 lj/cut 3.0 1.3274390900291055 6.0
pair_coeff 3 34 lj/cut 3.0 1.3274390900291055 6.0
pair_coeff 3 53 lj/cut 3.0 1.3274390900291055 6.0
pair_coeff 3 58 lj/cut 3.0 1.3274390900291055 6.0
pair_coeff 4 36 lj/cut 3.0 1.3274390900291055 6.0
pair_coeff 4 41 lj/cut 3.0 1.3274390900291055 6.0
pair_coeff 4 44 lj/cut 3.0 1.3274390900291055 6.0
pair_coeff 4 45 lj/cut 3.0 1.3274390900291055 6.0
pair_coeff 5 35 lj/cut 3.0 1.3274390900291055 6.0
pair_coeff 5 52 lj/cut 3.0 1.3274390900291055 6.0
pair_coeff 5 53 lj/cut 3.0 1.3274390900291055 6.0
pair_coeff 5 54 lj/cut 3.0 1.3274390900291055 6.0
pair_coeff 6 25 lj/cut 3.0 1.3274390900291055 6.0
pair_coeff 6 41 lj/cut 3.0 1.3274390900291055 6.0
pair_coeff 6 42 lj/cut 3.0 1.3274390900291055 6.0
pair_coeff 6 43 lj/cut 3.0 1.3274390900291055 6.0
pair_coeff 7 29 lj/cut 3.0 1.3274390900291055 6.0
pair_coeff 7 33 lj/cut 3.0 1.3274390900291055 6.0
pair_coeff 7 34 lj/cut 3.0 1.3274390900291055 6.0
pair_coeff 7 35 lj/cut 3.0 1.3274390900291055 6.0
pair_coeff 8 24 lj/cut 3.0 1.3274390900291055 6.0
pair_coeff 8 42 lj/cut 3.0 1.3274390900291055 6.0
pair_coeff 8 44 lj/cut 3.0 1.3274390900291055 6.0
pair_coeff 8 49 lj/cut 3.0 1.3274390900291055 6.0
pair_coeff 9 59 lj/cut 3.0 1.3274390900291055 6.0
pair_coeff 9 61 lj/cut 3.0 1.3274390900291055 6.0
pair_coeff 9 62 lj/cut 3.0 1.3274390900291055 6.0
pair_coeff 9 63 lj/cut 3.0 1.3274390900291055 6.0
pair_coeff 10 39 lj/cut 3.0 1.3274390900291055 6.0
pair_coeff 10 47 lj/cut 3.0 1.3274390900291055 6.0
pair_coeff 10 64 lj/cut 3.0 1.3274390900291055 6.0
pair_coeff 10 68 lj/cut 3.0 1.3274390900291055 6.0
pair_coeff 11 30 lj/cut 3.0 1.3274390900291055 6.0
pair_coeff 11 60 lj/cut 3.0 1.3274390900291055 6.0
pair_coeff 11 62 lj/cut 3.0 1.3274390900291055 6.0
pair_coeff 11 66 lj/cut 3.0 1.3274390900291055 6.0
pair_coeff 12 40 lj/cut 3.0 1.3274390900291055 6.0
pair_coeff 12 46 lj/cut 3.0 1.3274390900291055 6.0
pair_coeff 12 50 lj/cut 3.0 1.3274390900291055 6.0
pair_coeff 12 67 lj/cut 3.0 1.3274390900291055 6.0
pair_coeff 13 22 lj/cut 3.0 1.7996154106434854 6.0
pair_coeff 13 37 lj/cut 3.0 1.7996154106434854 6.0
pair_coeff 13 43 lj/cut 3.0 1.7996154106434854 6.0
pair_coeff 13 48 lj/cut 3.0 1.7996154106434854 6.0
pair_coeff 13 51 lj/cut 3.0 1.7996154106434854 6.0
pair_coeff 13 64 lj/cut 3.0 1.7996154106434854 6.0
pair_coeff 14 54 lj/cut 3.0 1.7996154106434854 6.0
pair_coeff 14 56 lj/cut 3.0 1.7996154106434854 6.0
pair_coeff 14 63 lj/cut 3.0 1.7996154106434854 6.0
pair_coeff 14 65 lj/cut 3.0 1.7996154106434854 6.0
pair_coeff 14 66 lj/cut 3.0 1.7996154106434854 6.0
pair_coeff 14 67 lj/cut 3.0 1.7996154106434854 6.0
pair_coeff 15 23 lj/cut 3.0 1.7996154106434854 6.0
pair_coeff 15 38 lj/cut 3.0 1.7996154106434854 6.0
pair_coeff 15 45 lj/cut 3.0 1.7996154106434854 6.0
pair_coeff 15 49 lj/cut 3.0 1.7996154106434854 6.0
pair_coeff 15 50 lj/cut 3.0 1.7996154106434854 6.0
pair_coeff 15 51 lj/cut 3.0 1.7996154106434854 6.0
pair_coeff 16 27 lj/cut 3.0 1.7996154106434854 6.0
pair_coeff 16 28 lj/cut 3.0 1.7996154106434854 6.0
pair_coeff 16 29 lj/cut 3.0 1.7996154106434854 6.0
pair_coeff 16 30 lj/cut 3.0 1.7996154106434854 6.0
pair_coeff 16 31 lj/cut 3.0 1.7996154106434854 6.0
pair_coeff 16 32 lj/cut 3.0 1.7996154106434854 6.0
pair_coeff 17 28 lj/cut 3.0 1.7996154106434854 6.0
pair_coeff 17 33 lj/cut 3.0 1.7996154106434854 6.0
pair_coeff 17 52 lj/cut 3.0 1.7996154106434854 6.0
pair_coeff 17 55 lj/cut 3.0 1.7996154106434854 6.0
pair_coeff 17 56 lj/cut 3.0 1.7996154106434854 6.0
pair_coeff 17 57 lj/cut 3.0 1.7996154106434854 6.0
pair_coeff 18 21 lj/cut 3.0 1.7996154106434854 6.0
pair_coeff 18 22 lj/cut 3.0 1.7996154106434854 6.0
pair_coeff 18 23 lj/cut 3.0 1.7996154106434854 6.0
pair_coeff 18 24 lj/cut 3.0 1.7996154106434854 6.0
pair_coeff 18 25 lj/cut 3.0 1.7996154106434854 6.0
pair_coeff 18 26 lj/cut 3.0 1.7996154106434854 6.0
pair_coeff 19 27 lj/cut 3.0 1.7996154106434854 6.0
pair_coeff 19 57 lj/cut 3.0 1.7996154106434854 6.0
pair_coeff 19 58 lj/cut 3.0 1.7996154106434854 6.0
pair_coeff 19 61 lj/cut 3.0 1.7996154106434854 6.0
pair_coeff 19 65 lj/cut 3.0 1.7996154106434854 6.0
pair_coeff 19 68 lj/cut 3.0 1.7996154106434854 6.0
pair_coeff 20 26 lj/cut 3.0 1.7996154106434854 6.0
pair_coeff 20 36 lj/cut 3.0 1.7996154106434854 6.0
pair_coeff 20 37 lj/cut 3.0 1.7996154106434854 6.0
pair_coeff 20 38 lj/cut 3.0 1.7996154106434854 6.0
pair_coeff 20 39 lj/cut 3.0 1.7996154106434854 6.0
pair_coeff 20 40 lj/cut 3.0 1.7996154106434854 6.0
