boundary p p p
units metal
atom_modify map yes
neighbor 2.0 bin
neigh_modify every 1 delay 0 check yes


read_data coo

mass * 1

atom_modify sort 0 0.0

thermo 1
thermo_style custom step temp pe evdwl ecoul vol press spcpu

pair_style hybrid/overlay lj/cut 6.0 harmonic/cut 

pair_coeff   *     *   harmonic/cut       0.0  0.0
pair_coeff 21*68 21*68 harmonic/cut       0.01 2.0
pair_coeff * * lj/cut         0.0 0.0   0.0

minimize 0.0 2.0e-3 1000 10000000

pair_coeff   *     *   harmonic/cut       0.0  0.0

pair_coeff 1 32 lj/cut 3.0 1.3274390900291055 6.0
pair_coeff 1 55 lj/cut 3.0 1.3274390900291055 6.0
pair_coeff 1 59 lj/cut 3.0 1.3274390900291055 6.0
pair_coeff 1 60 lj/cut 3.0 1.3274390900291055 6.0
pair_coeff 2 21 lj/cut 3.0 1.3274390900291055 6.0
pair_coeff 2 46 lj/cut 3.0 1.3274390900291055 6.0
pair_coeff 2 47 lj/cut 3.0 1.3274390900291055 6.0
pair_coeff 2 48 lj/cut 3.0 1.3274390900291055 6.0
pair_coeff 3 31 lj/cut 3.0 1.3274390900291055 6.0
pair_coeff 3 34 lj/cut 3.0 1.3274390900291055 6.0
pair_coeff 3 53 lj/cut 3.0 1.3274390900291055 6.0
pair_coeff 3 58 lj/cut 3.0 1.3274390900291055 6.0
pair_coeff 4 36 lj/cut 3.0 1.3274390900291055 6.0
pair_coeff 4 41 lj/cut 3.0 1.3274390900291055 6.0
pair_coeff 4 44 lj/cut 3.0 1.3274390900291055 6.0
pair_coeff 4 45 lj/cut 3.0 1.3274390900291055 6.0
pair_coeff 5 35 lj/cut 3.0 1.3274390900291055 6.0
pair_coeff 5 52 lj/cut 3.0 1.3274390900291055 6.0
pair_coeff 5 53 lj/cut 3.0 1.3274390900291055 6.0
pair_coeff 5 54 lj/cut 3.0 1.3274390900291055 6.0
pair_coeff 6 25 lj/cut 3.0 1.3274390900291055 6.0
pair_coeff 6 41 lj/cut 3.0 1.3274390900291055 6.0
pair_coeff 6 42 lj/cut 3.0 1.3274390900291055 6.0
pair_coeff 6 43 lj/cut 3.0 1.3274390900291055 6.0
pair_coeff 7 29 lj/cut 3.0 1.3274390900291055 6.0
pair_coeff 7 33 lj/cut 3.0 1.3274390900291055 6.0
pair_coeff 7 34 lj/cut 3.0 1.3274390900291055 6.0
pair_coeff 7 35 lj/cut 3.0 1.3274390900291055 6.0
pair_coeff 8 24 lj/cut 3.0 1.3274390900291055 6.0
pair_coeff 8 42 lj/cut 3.0 1.3274390900291055 6.0
pair_coeff 8 44 lj/cut 3.0 1.3274390900291055 6.0
pair_coeff 8 49 lj/cut 3.0 1.3274390900291055 6.0
pair_coeff 9 59 lj/cut 3.0 1.3274390900291055 6.0
pair_coeff 9 61 lj/cut 3.0 1.3274390900291055 6.0
pair_coeff 9 62 lj/cut 3.0 1.3274390900291055 6.0
pair_coeff 9 63 lj/cut 3.0 1.3274390900291055 6.0
pair_coeff 10 39 lj/cut 3.0 1.3274390900291055 6.0
pair_coeff 10 47 lj/cut 3.0 1.3274390900291055 6.0
pair_coeff 10 64 lj/cut 3.0 1.3274390900291055 6.0
pair_coeff 10 68 lj/cut 3.0 1.3274390900291055 6.0
pair_coeff 11 30 lj/cut 3.0 1.3274390900291055 6.0
pair_coeff 11 60 lj/cut 3.0 1.3274390900291055 6.0
pair_coeff 11 62 lj/cut 3.0 1.3274390900291055 6.0
pair_coeff 11 66 lj/cut 3.0 1.3274390900291055 6.0
pair_coeff 12 40 lj/cut 3.0 1.3274390900291055 6.0
pair_coeff 12 46 lj/cut 3.0 1.3274390900291055 6.0
pair_coeff 12 50 lj/cut 3.0 1.3274390900291055 6.0
pair_coeff 12 67 lj/cut 3.0 1.3274390900291055 6.0
pair_coeff 13 22 lj/cut 3.0 1.7996154106434854 6.0
pair_coeff 13 37 lj/cut 3.0 1.7996154106434854 6.0
pair_coeff 13 43 lj/cut 3.0 1.7996154106434854 6.0
pair_coeff 13 48 lj/cut 3.0 1.7996154106434854 6.0
pair_coeff 13 51 lj/cut 3.0 1.7996154106434854 6.0
pair_coeff 13 64 lj/cut 3.0 1.7996154106434854 6.0
pair_coeff 14 54 lj/cut 3.0 1.7996154106434854 6.0
pair_coeff 14 56 lj/cut 3.0 1.7996154106434854 6.0
pair_coeff 14 63 lj/cut 3.0 1.7996154106434854 6.0
pair_coeff 14 65 lj/cut 3.0 1.7996154106434854 6.0
pair_coeff 14 66 lj/cut 3.0 1.7996154106434854 6.0
pair_coeff 14 67 lj/cut 3.0 1.7996154106434854 6.0
pair_coeff 15 23 lj/cut 3.0 1.7996154106434854 6.0
pair_coeff 15 38 lj/cut 3.0 1.7996154106434854 6.0
pair_coeff 15 45 lj/cut 3.0 1.7996154106434854 6.0
pair_coeff 15 49 lj/cut 3.0 1.7996154106434854 6.0
pair_coeff 15 50 lj/cut 3.0 1.7996154106434854 6.0
pair_coeff 15 51 lj/cut 3.0 1.7996154106434854 6.0
pair_coeff 16 27 lj/cut 3.0 1.7996154106434854 6.0
pair_coeff 16 28 lj/cut 3.0 1.7996154106434854 6.0
pair_coeff 16 29 lj/cut 3.0 1.7996154106434854 6.0
pair_coeff 16 30 lj/cut 3.0 1.7996154106434854 6.0
pair_coeff 16 31 lj/cut 3.0 1.7996154106434854 6.0
pair_coeff 16 32 lj/cut 3.0 1.7996154106434854 6.0
pair_coeff 17 28 lj/cut 3.0 1.7996154106434854 6.0
pair_coeff 17 33 lj/cut 3.0 1.7996154106434854 6.0
pair_coeff 17 52 lj/cut 3.0 1.7996154106434854 6.0
pair_coeff 17 55 lj/cut 3.0 1.7996154106434854 6.0
pair_coeff 17 56 lj/cut 3.0 1.7996154106434854 6.0
pair_coeff 17 57 lj/cut 3.0 1.7996154106434854 6.0
pair_coeff 18 21 lj/cut 3.0 1.7996154106434854 6.0
pair_coeff 18 22 lj/cut 3.0 1.7996154106434854 6.0
pair_coeff 18 23 lj/cut 3.0 1.7996154106434854 6.0
pair_coeff 18 24 lj/cut 3.0 1.7996154106434854 6.0
pair_coeff 18 25 lj/cut 3.0 1.7996154106434854 6.0
pair_coeff 18 26 lj/cut 3.0 1.7996154106434854 6.0
pair_coeff 19 27 lj/cut 3.0 1.7996154106434854 6.0
pair_coeff 19 57 lj/cut 3.0 1.7996154106434854 6.0
pair_coeff 19 58 lj/cut 3.0 1.7996154106434854 6.0
pair_coeff 19 61 lj/cut 3.0 1.7996154106434854 6.0
pair_coeff 19 65 lj/cut 3.0 1.7996154106434854 6.0
pair_coeff 19 68 lj/cut 3.0 1.7996154106434854 6.0
pair_coeff 20 26 lj/cut 3.0 1.7996154106434854 6.0
pair_coeff 20 36 lj/cut 3.0 1.7996154106434854 6.0
pair_coeff 20 37 lj/cut 3.0 1.7996154106434854 6.0
pair_coeff 20 38 lj/cut 3.0 1.7996154106434854 6.0
pair_coeff 20 39 lj/cut 3.0 1.7996154106434854 6.0
pair_coeff 20 40 lj/cut 3.0 1.7996154106434854 6.0

pair_coeff 1 21 harmonic/cut 0.2 3.21 
pair_coeff 1 46 harmonic/cut 0.2 3.21 
pair_coeff 1 47 harmonic/cut 0.2 3.21 
pair_coeff 1 48 harmonic/cut 0.2 3.21 
pair_coeff 1 31 harmonic/cut 0.2 3.21 
pair_coeff 1 34 harmonic/cut 0.2 3.21 
pair_coeff 1 53 harmonic/cut 0.2 3.21 
pair_coeff 1 58 harmonic/cut 0.2 3.21 
pair_coeff 1 36 harmonic/cut 0.2 3.21 
pair_coeff 1 41 harmonic/cut 0.2 3.21 
pair_coeff 1 44 harmonic/cut 0.2 3.21 
pair_coeff 1 45 harmonic/cut 0.2 3.21 
pair_coeff 1 35 harmonic/cut 0.2 3.21 
pair_coeff 1 52 harmonic/cut 0.2 3.21 
pair_coeff 1 54 harmonic/cut 0.2 3.21 
pair_coeff 1 25 harmonic/cut 0.2 3.21 
pair_coeff 1 42 harmonic/cut 0.2 3.21 
pair_coeff 1 43 harmonic/cut 0.2 3.21 
pair_coeff 1 29 harmonic/cut 0.2 3.21 
pair_coeff 1 33 harmonic/cut 0.2 3.21 
pair_coeff 1 24 harmonic/cut 0.2 3.21 
pair_coeff 1 49 harmonic/cut 0.2 3.21 
pair_coeff 1 61 harmonic/cut 0.2 3.21 
pair_coeff 1 62 harmonic/cut 0.2 3.21 
pair_coeff 1 63 harmonic/cut 0.2 3.21 
pair_coeff 1 39 harmonic/cut 0.2 3.21 
pair_coeff 1 64 harmonic/cut 0.2 3.21 
pair_coeff 1 68 harmonic/cut 0.2 3.21 
pair_coeff 1 30 harmonic/cut 0.2 3.21 
pair_coeff 1 66 harmonic/cut 0.2 3.21 
pair_coeff 1 40 harmonic/cut 0.2 3.21 
pair_coeff 1 50 harmonic/cut 0.2 3.21 
pair_coeff 1 67 harmonic/cut 0.2 3.21 
pair_coeff 1 22 harmonic/cut 0.2 3.21 
pair_coeff 1 37 harmonic/cut 0.2 3.21 
pair_coeff 1 51 harmonic/cut 0.2 3.21 
pair_coeff 1 56 harmonic/cut 0.2 3.21 
pair_coeff 1 65 harmonic/cut 0.2 3.21 
pair_coeff 1 23 harmonic/cut 0.2 3.21 
pair_coeff 1 38 harmonic/cut 0.2 3.21 
pair_coeff 1 27 harmonic/cut 0.2 3.21 
pair_coeff 1 28 harmonic/cut 0.2 3.21 
pair_coeff 1 57 harmonic/cut 0.2 3.21 
pair_coeff 1 26 harmonic/cut 0.2 3.21 
pair_coeff 2 32 harmonic/cut 0.2 3.21 
pair_coeff 2 55 harmonic/cut 0.2 3.21 
pair_coeff 2 59 harmonic/cut 0.2 3.21 
pair_coeff 2 60 harmonic/cut 0.2 3.21 
pair_coeff 2 31 harmonic/cut 0.2 3.21 
pair_coeff 2 34 harmonic/cut 0.2 3.21 
pair_coeff 2 53 harmonic/cut 0.2 3.21 
pair_coeff 2 58 harmonic/cut 0.2 3.21 
pair_coeff 2 36 harmonic/cut 0.2 3.21 
pair_coeff 2 41 harmonic/cut 0.2 3.21 
pair_coeff 2 44 harmonic/cut 0.2 3.21 
pair_coeff 2 45 harmonic/cut 0.2 3.21 
pair_coeff 2 35 harmonic/cut 0.2 3.21 
pair_coeff 2 52 harmonic/cut 0.2 3.21 
pair_coeff 2 54 harmonic/cut 0.2 3.21 
pair_coeff 2 25 harmonic/cut 0.2 3.21 
pair_coeff 2 42 harmonic/cut 0.2 3.21 
pair_coeff 2 43 harmonic/cut 0.2 3.21 
pair_coeff 2 29 harmonic/cut 0.2 3.21 
pair_coeff 2 33 harmonic/cut 0.2 3.21 
pair_coeff 2 24 harmonic/cut 0.2 3.21 
pair_coeff 2 49 harmonic/cut 0.2 3.21 
pair_coeff 2 61 harmonic/cut 0.2 3.21 
pair_coeff 2 62 harmonic/cut 0.2 3.21 
pair_coeff 2 63 harmonic/cut 0.2 3.21 
pair_coeff 2 39 harmonic/cut 0.2 3.21 
pair_coeff 2 64 harmonic/cut 0.2 3.21 
pair_coeff 2 68 harmonic/cut 0.2 3.21 
pair_coeff 2 30 harmonic/cut 0.2 3.21 
pair_coeff 2 66 harmonic/cut 0.2 3.21 
pair_coeff 2 40 harmonic/cut 0.2 3.21 
pair_coeff 2 50 harmonic/cut 0.2 3.21 
pair_coeff 2 67 harmonic/cut 0.2 3.21 
pair_coeff 2 22 harmonic/cut 0.2 3.21 
pair_coeff 2 37 harmonic/cut 0.2 3.21 
pair_coeff 2 51 harmonic/cut 0.2 3.21 
pair_coeff 2 56 harmonic/cut 0.2 3.21 
pair_coeff 2 65 harmonic/cut 0.2 3.21 
pair_coeff 2 23 harmonic/cut 0.2 3.21 
pair_coeff 2 38 harmonic/cut 0.2 3.21 
pair_coeff 2 27 harmonic/cut 0.2 3.21 
pair_coeff 2 28 harmonic/cut 0.2 3.21 
pair_coeff 2 57 harmonic/cut 0.2 3.21 
pair_coeff 2 26 harmonic/cut 0.2 3.21 
pair_coeff 3 32 harmonic/cut 0.2 3.21 
pair_coeff 3 55 harmonic/cut 0.2 3.21 
pair_coeff 3 59 harmonic/cut 0.2 3.21 
pair_coeff 3 60 harmonic/cut 0.2 3.21 
pair_coeff 3 21 harmonic/cut 0.2 3.21 
pair_coeff 3 46 harmonic/cut 0.2 3.21 
pair_coeff 3 47 harmonic/cut 0.2 3.21 
pair_coeff 3 48 harmonic/cut 0.2 3.21 
pair_coeff 3 36 harmonic/cut 0.2 3.21 
pair_coeff 3 41 harmonic/cut 0.2 3.21 
pair_coeff 3 44 harmonic/cut 0.2 3.21 
pair_coeff 3 45 harmonic/cut 0.2 3.21 
pair_coeff 3 35 harmonic/cut 0.2 3.21 
pair_coeff 3 52 harmonic/cut 0.2 3.21 
pair_coeff 3 54 harmonic/cut 0.2 3.21 
pair_coeff 3 25 harmonic/cut 0.2 3.21 
pair_coeff 3 42 harmonic/cut 0.2 3.21 
pair_coeff 3 43 harmonic/cut 0.2 3.21 
pair_coeff 3 29 harmonic/cut 0.2 3.21 
pair_coeff 3 33 harmonic/cut 0.2 3.21 
pair_coeff 3 24 harmonic/cut 0.2 3.21 
pair_coeff 3 49 harmonic/cut 0.2 3.21 
pair_coeff 3 61 harmonic/cut 0.2 3.21 
pair_coeff 3 62 harmonic/cut 0.2 3.21 
pair_coeff 3 63 harmonic/cut 0.2 3.21 
pair_coeff 3 39 harmonic/cut 0.2 3.21 
pair_coeff 3 64 harmonic/cut 0.2 3.21 
pair_coeff 3 68 harmonic/cut 0.2 3.21 
pair_coeff 3 30 harmonic/cut 0.2 3.21 
pair_coeff 3 66 harmonic/cut 0.2 3.21 
pair_coeff 3 40 harmonic/cut 0.2 3.21 
pair_coeff 3 50 harmonic/cut 0.2 3.21 
pair_coeff 3 67 harmonic/cut 0.2 3.21 
pair_coeff 3 22 harmonic/cut 0.2 3.21 
pair_coeff 3 37 harmonic/cut 0.2 3.21 
pair_coeff 3 51 harmonic/cut 0.2 3.21 
pair_coeff 3 56 harmonic/cut 0.2 3.21 
pair_coeff 3 65 harmonic/cut 0.2 3.21 
pair_coeff 3 23 harmonic/cut 0.2 3.21 
pair_coeff 3 38 harmonic/cut 0.2 3.21 
pair_coeff 3 27 harmonic/cut 0.2 3.21 
pair_coeff 3 28 harmonic/cut 0.2 3.21 
pair_coeff 3 57 harmonic/cut 0.2 3.21 
pair_coeff 3 26 harmonic/cut 0.2 3.21 
pair_coeff 4 32 harmonic/cut 0.2 3.21 
pair_coeff 4 55 harmonic/cut 0.2 3.21 
pair_coeff 4 59 harmonic/cut 0.2 3.21 
pair_coeff 4 60 harmonic/cut 0.2 3.21 
pair_coeff 4 21 harmonic/cut 0.2 3.21 
pair_coeff 4 46 harmonic/cut 0.2 3.21 
pair_coeff 4 47 harmonic/cut 0.2 3.21 
pair_coeff 4 48 harmonic/cut 0.2 3.21 
pair_coeff 4 31 harmonic/cut 0.2 3.21 
pair_coeff 4 34 harmonic/cut 0.2 3.21 
pair_coeff 4 53 harmonic/cut 0.2 3.21 
pair_coeff 4 58 harmonic/cut 0.2 3.21 
pair_coeff 4 35 harmonic/cut 0.2 3.21 
pair_coeff 4 52 harmonic/cut 0.2 3.21 
pair_coeff 4 54 harmonic/cut 0.2 3.21 
pair_coeff 4 25 harmonic/cut 0.2 3.21 
pair_coeff 4 42 harmonic/cut 0.2 3.21 
pair_coeff 4 43 harmonic/cut 0.2 3.21 
pair_coeff 4 29 harmonic/cut 0.2 3.21 
pair_coeff 4 33 harmonic/cut 0.2 3.21 
pair_coeff 4 24 harmonic/cut 0.2 3.21 
pair_coeff 4 49 harmonic/cut 0.2 3.21 
pair_coeff 4 61 harmonic/cut 0.2 3.21 
pair_coeff 4 62 harmonic/cut 0.2 3.21 
pair_coeff 4 63 harmonic/cut 0.2 3.21 
pair_coeff 4 39 harmonic/cut 0.2 3.21 
pair_coeff 4 64 harmonic/cut 0.2 3.21 
pair_coeff 4 68 harmonic/cut 0.2 3.21 
pair_coeff 4 30 harmonic/cut 0.2 3.21 
pair_coeff 4 66 harmonic/cut 0.2 3.21 
pair_coeff 4 40 harmonic/cut 0.2 3.21 
pair_coeff 4 50 harmonic/cut 0.2 3.21 
pair_coeff 4 67 harmonic/cut 0.2 3.21 
pair_coeff 4 22 harmonic/cut 0.2 3.21 
pair_coeff 4 37 harmonic/cut 0.2 3.21 
pair_coeff 4 51 harmonic/cut 0.2 3.21 
pair_coeff 4 56 harmonic/cut 0.2 3.21 
pair_coeff 4 65 harmonic/cut 0.2 3.21 
pair_coeff 4 23 harmonic/cut 0.2 3.21 
pair_coeff 4 38 harmonic/cut 0.2 3.21 
pair_coeff 4 27 harmonic/cut 0.2 3.21 
pair_coeff 4 28 harmonic/cut 0.2 3.21 
pair_coeff 4 57 harmonic/cut 0.2 3.21 
pair_coeff 4 26 harmonic/cut 0.2 3.21 
pair_coeff 5 32 harmonic/cut 0.2 3.21 
pair_coeff 5 55 harmonic/cut 0.2 3.21 
pair_coeff 5 59 harmonic/cut 0.2 3.21 
pair_coeff 5 60 harmonic/cut 0.2 3.21 
pair_coeff 5 21 harmonic/cut 0.2 3.21 
pair_coeff 5 46 harmonic/cut 0.2 3.21 
pair_coeff 5 47 harmonic/cut 0.2 3.21 
pair_coeff 5 48 harmonic/cut 0.2 3.21 
pair_coeff 5 31 harmonic/cut 0.2 3.21 
pair_coeff 5 34 harmonic/cut 0.2 3.21 
pair_coeff 5 58 harmonic/cut 0.2 3.21 
pair_coeff 5 36 harmonic/cut 0.2 3.21 
pair_coeff 5 41 harmonic/cut 0.2 3.21 
pair_coeff 5 44 harmonic/cut 0.2 3.21 
pair_coeff 5 45 harmonic/cut 0.2 3.21 
pair_coeff 5 25 harmonic/cut 0.2 3.21 
pair_coeff 5 42 harmonic/cut 0.2 3.21 
pair_coeff 5 43 harmonic/cut 0.2 3.21 
pair_coeff 5 29 harmonic/cut 0.2 3.21 
pair_coeff 5 33 harmonic/cut 0.2 3.21 
pair_coeff 5 24 harmonic/cut 0.2 3.21 
pair_coeff 5 49 harmonic/cut 0.2 3.21 
pair_coeff 5 61 harmonic/cut 0.2 3.21 
pair_coeff 5 62 harmonic/cut 0.2 3.21 
pair_coeff 5 63 harmonic/cut 0.2 3.21 
pair_coeff 5 39 harmonic/cut 0.2 3.21 
pair_coeff 5 64 harmonic/cut 0.2 3.21 
pair_coeff 5 68 harmonic/cut 0.2 3.21 
pair_coeff 5 30 harmonic/cut 0.2 3.21 
pair_coeff 5 66 harmonic/cut 0.2 3.21 
pair_coeff 5 40 harmonic/cut 0.2 3.21 
pair_coeff 5 50 harmonic/cut 0.2 3.21 
pair_coeff 5 67 harmonic/cut 0.2 3.21 
pair_coeff 5 22 harmonic/cut 0.2 3.21 
pair_coeff 5 37 harmonic/cut 0.2 3.21 
pair_coeff 5 51 harmonic/cut 0.2 3.21 
pair_coeff 5 56 harmonic/cut 0.2 3.21 
pair_coeff 5 65 harmonic/cut 0.2 3.21 
pair_coeff 5 23 harmonic/cut 0.2 3.21 
pair_coeff 5 38 harmonic/cut 0.2 3.21 
pair_coeff 5 27 harmonic/cut 0.2 3.21 
pair_coeff 5 28 harmonic/cut 0.2 3.21 
pair_coeff 5 57 harmonic/cut 0.2 3.21 
pair_coeff 5 26 harmonic/cut 0.2 3.21 
pair_coeff 6 32 harmonic/cut 0.2 3.21 
pair_coeff 6 55 harmonic/cut 0.2 3.21 
pair_coeff 6 59 harmonic/cut 0.2 3.21 
pair_coeff 6 60 harmonic/cut 0.2 3.21 
pair_coeff 6 21 harmonic/cut 0.2 3.21 
pair_coeff 6 46 harmonic/cut 0.2 3.21 
pair_coeff 6 47 harmonic/cut 0.2 3.21 
pair_coeff 6 48 harmonic/cut 0.2 3.21 
pair_coeff 6 31 harmonic/cut 0.2 3.21 
pair_coeff 6 34 harmonic/cut 0.2 3.21 
pair_coeff 6 53 harmonic/cut 0.2 3.21 
pair_coeff 6 58 harmonic/cut 0.2 3.21 
pair_coeff 6 36 harmonic/cut 0.2 3.21 
pair_coeff 6 44 harmonic/cut 0.2 3.21 
pair_coeff 6 45 harmonic/cut 0.2 3.21 
pair_coeff 6 35 harmonic/cut 0.2 3.21 
pair_coeff 6 52 harmonic/cut 0.2 3.21 
pair_coeff 6 54 harmonic/cut 0.2 3.21 
pair_coeff 6 29 harmonic/cut 0.2 3.21 
pair_coeff 6 33 harmonic/cut 0.2 3.21 
pair_coeff 6 24 harmonic/cut 0.2 3.21 
pair_coeff 6 49 harmonic/cut 0.2 3.21 
pair_coeff 6 61 harmonic/cut 0.2 3.21 
pair_coeff 6 62 harmonic/cut 0.2 3.21 
pair_coeff 6 63 harmonic/cut 0.2 3.21 
pair_coeff 6 39 harmonic/cut 0.2 3.21 
pair_coeff 6 64 harmonic/cut 0.2 3.21 
pair_coeff 6 68 harmonic/cut 0.2 3.21 
pair_coeff 6 30 harmonic/cut 0.2 3.21 
pair_coeff 6 66 harmonic/cut 0.2 3.21 
pair_coeff 6 40 harmonic/cut 0.2 3.21 
pair_coeff 6 50 harmonic/cut 0.2 3.21 
pair_coeff 6 67 harmonic/cut 0.2 3.21 
pair_coeff 6 22 harmonic/cut 0.2 3.21 
pair_coeff 6 37 harmonic/cut 0.2 3.21 
pair_coeff 6 51 harmonic/cut 0.2 3.21 
pair_coeff 6 56 harmonic/cut 0.2 3.21 
pair_coeff 6 65 harmonic/cut 0.2 3.21 
pair_coeff 6 23 harmonic/cut 0.2 3.21 
pair_coeff 6 38 harmonic/cut 0.2 3.21 
pair_coeff 6 27 harmonic/cut 0.2 3.21 
pair_coeff 6 28 harmonic/cut 0.2 3.21 
pair_coeff 6 57 harmonic/cut 0.2 3.21 
pair_coeff 6 26 harmonic/cut 0.2 3.21 
pair_coeff 7 32 harmonic/cut 0.2 3.21 
pair_coeff 7 55 harmonic/cut 0.2 3.21 
pair_coeff 7 59 harmonic/cut 0.2 3.21 
pair_coeff 7 60 harmonic/cut 0.2 3.21 
pair_coeff 7 21 harmonic/cut 0.2 3.21 
pair_coeff 7 46 harmonic/cut 0.2 3.21 
pair_coeff 7 47 harmonic/cut 0.2 3.21 
pair_coeff 7 48 harmonic/cut 0.2 3.21 
pair_coeff 7 31 harmonic/cut 0.2 3.21 
pair_coeff 7 53 harmonic/cut 0.2 3.21 
pair_coeff 7 58 harmonic/cut 0.2 3.21 
pair_coeff 7 36 harmonic/cut 0.2 3.21 
pair_coeff 7 41 harmonic/cut 0.2 3.21 
pair_coeff 7 44 harmonic/cut 0.2 3.21 
pair_coeff 7 45 harmonic/cut 0.2 3.21 
pair_coeff 7 52 harmonic/cut 0.2 3.21 
pair_coeff 7 54 harmonic/cut 0.2 3.21 
pair_coeff 7 25 harmonic/cut 0.2 3.21 
pair_coeff 7 42 harmonic/cut 0.2 3.21 
pair_coeff 7 43 harmonic/cut 0.2 3.21 
pair_coeff 7 24 harmonic/cut 0.2 3.21 
pair_coeff 7 49 harmonic/cut 0.2 3.21 
pair_coeff 7 61 harmonic/cut 0.2 3.21 
pair_coeff 7 62 harmonic/cut 0.2 3.21 
pair_coeff 7 63 harmonic/cut 0.2 3.21 
pair_coeff 7 39 harmonic/cut 0.2 3.21 
pair_coeff 7 64 harmonic/cut 0.2 3.21 
pair_coeff 7 68 harmonic/cut 0.2 3.21 
pair_coeff 7 30 harmonic/cut 0.2 3.21 
pair_coeff 7 66 harmonic/cut 0.2 3.21 
pair_coeff 7 40 harmonic/cut 0.2 3.21 
pair_coeff 7 50 harmonic/cut 0.2 3.21 
pair_coeff 7 67 harmonic/cut 0.2 3.21 
pair_coeff 7 22 harmonic/cut 0.2 3.21 
pair_coeff 7 37 harmonic/cut 0.2 3.21 
pair_coeff 7 51 harmonic/cut 0.2 3.21 
pair_coeff 7 56 harmonic/cut 0.2 3.21 
pair_coeff 7 65 harmonic/cut 0.2 3.21 
pair_coeff 7 23 harmonic/cut 0.2 3.21 
pair_coeff 7 38 harmonic/cut 0.2 3.21 
pair_coeff 7 27 harmonic/cut 0.2 3.21 
pair_coeff 7 28 harmonic/cut 0.2 3.21 
pair_coeff 7 57 harmonic/cut 0.2 3.21 
pair_coeff 7 26 harmonic/cut 0.2 3.21 
pair_coeff 8 32 harmonic/cut 0.2 3.21 
pair_coeff 8 55 harmonic/cut 0.2 3.21 
pair_coeff 8 59 harmonic/cut 0.2 3.21 
pair_coeff 8 60 harmonic/cut 0.2 3.21 
pair_coeff 8 21 harmonic/cut 0.2 3.21 
pair_coeff 8 46 harmonic/cut 0.2 3.21 
pair_coeff 8 47 harmonic/cut 0.2 3.21 
pair_coeff 8 48 harmonic/cut 0.2 3.21 
pair_coeff 8 31 harmonic/cut 0.2 3.21 
pair_coeff 8 34 harmonic/cut 0.2 3.21 
pair_coeff 8 53 harmonic/cut 0.2 3.21 
pair_coeff 8 58 harmonic/cut 0.2 3.21 
pair_coeff 8 36 harmonic/cut 0.2 3.21 
pair_coeff 8 41 harmonic/cut 0.2 3.21 
pair_coeff 8 45 harmonic/cut 0.2 3.21 
pair_coeff 8 35 harmonic/cut 0.2 3.21 
pair_coeff 8 52 harmonic/cut 0.2 3.21 
pair_coeff 8 54 harmonic/cut 0.2 3.21 
pair_coeff 8 25 harmonic/cut 0.2 3.21 
pair_coeff 8 43 harmonic/cut 0.2 3.21 
pair_coeff 8 29 harmonic/cut 0.2 3.21 
pair_coeff 8 33 harmonic/cut 0.2 3.21 
pair_coeff 8 61 harmonic/cut 0.2 3.21 
pair_coeff 8 62 harmonic/cut 0.2 3.21 
pair_coeff 8 63 harmonic/cut 0.2 3.21 
pair_coeff 8 39 harmonic/cut 0.2 3.21 
pair_coeff 8 64 harmonic/cut 0.2 3.21 
pair_coeff 8 68 harmonic/cut 0.2 3.21 
pair_coeff 8 30 harmonic/cut 0.2 3.21 
pair_coeff 8 66 harmonic/cut 0.2 3.21 
pair_coeff 8 40 harmonic/cut 0.2 3.21 
pair_coeff 8 50 harmonic/cut 0.2 3.21 
pair_coeff 8 67 harmonic/cut 0.2 3.21 
pair_coeff 8 22 harmonic/cut 0.2 3.21 
pair_coeff 8 37 harmonic/cut 0.2 3.21 
pair_coeff 8 51 harmonic/cut 0.2 3.21 
pair_coeff 8 56 harmonic/cut 0.2 3.21 
pair_coeff 8 65 harmonic/cut 0.2 3.21 
pair_coeff 8 23 harmonic/cut 0.2 3.21 
pair_coeff 8 38 harmonic/cut 0.2 3.21 
pair_coeff 8 27 harmonic/cut 0.2 3.21 
pair_coeff 8 28 harmonic/cut 0.2 3.21 
pair_coeff 8 57 harmonic/cut 0.2 3.21 
pair_coeff 8 26 harmonic/cut 0.2 3.21 
pair_coeff 9 32 harmonic/cut 0.2 3.21 
pair_coeff 9 55 harmonic/cut 0.2 3.21 
pair_coeff 9 60 harmonic/cut 0.2 3.21 
pair_coeff 9 21 harmonic/cut 0.2 3.21 
pair_coeff 9 46 harmonic/cut 0.2 3.21 
pair_coeff 9 47 harmonic/cut 0.2 3.21 
pair_coeff 9 48 harmonic/cut 0.2 3.21 
pair_coeff 9 31 harmonic/cut 0.2 3.21 
pair_coeff 9 34 harmonic/cut 0.2 3.21 
pair_coeff 9 53 harmonic/cut 0.2 3.21 
pair_coeff 9 58 harmonic/cut 0.2 3.21 
pair_coeff 9 36 harmonic/cut 0.2 3.21 
pair_coeff 9 41 harmonic/cut 0.2 3.21 
pair_coeff 9 44 harmonic/cut 0.2 3.21 
pair_coeff 9 45 harmonic/cut 0.2 3.21 
pair_coeff 9 35 harmonic/cut 0.2 3.21 
pair_coeff 9 52 harmonic/cut 0.2 3.21 
pair_coeff 9 54 harmonic/cut 0.2 3.21 
pair_coeff 9 25 harmonic/cut 0.2 3.21 
pair_coeff 9 42 harmonic/cut 0.2 3.21 
pair_coeff 9 43 harmonic/cut 0.2 3.21 
pair_coeff 9 29 harmonic/cut 0.2 3.21 
pair_coeff 9 33 harmonic/cut 0.2 3.21 
pair_coeff 9 24 harmonic/cut 0.2 3.21 
pair_coeff 9 49 harmonic/cut 0.2 3.21 
pair_coeff 9 39 harmonic/cut 0.2 3.21 
pair_coeff 9 64 harmonic/cut 0.2 3.21 
pair_coeff 9 68 harmonic/cut 0.2 3.21 
pair_coeff 9 30 harmonic/cut 0.2 3.21 
pair_coeff 9 66 harmonic/cut 0.2 3.21 
pair_coeff 9 40 harmonic/cut 0.2 3.21 
pair_coeff 9 50 harmonic/cut 0.2 3.21 
pair_coeff 9 67 harmonic/cut 0.2 3.21 
pair_coeff 9 22 harmonic/cut 0.2 3.21 
pair_coeff 9 37 harmonic/cut 0.2 3.21 
pair_coeff 9 51 harmonic/cut 0.2 3.21 
pair_coeff 9 56 harmonic/cut 0.2 3.21 
pair_coeff 9 65 harmonic/cut 0.2 3.21 
pair_coeff 9 23 harmonic/cut 0.2 3.21 
pair_coeff 9 38 harmonic/cut 0.2 3.21 
pair_coeff 9 27 harmonic/cut 0.2 3.21 
pair_coeff 9 28 harmonic/cut 0.2 3.21 
pair_coeff 9 57 harmonic/cut 0.2 3.21 
pair_coeff 9 26 harmonic/cut 0.2 3.21 
pair_coeff 10 32 harmonic/cut 0.2 3.21 
pair_coeff 10 55 harmonic/cut 0.2 3.21 
pair_coeff 10 59 harmonic/cut 0.2 3.21 
pair_coeff 10 60 harmonic/cut 0.2 3.21 
pair_coeff 10 21 harmonic/cut 0.2 3.21 
pair_coeff 10 46 harmonic/cut 0.2 3.21 
pair_coeff 10 48 harmonic/cut 0.2 3.21 
pair_coeff 10 31 harmonic/cut 0.2 3.21 
pair_coeff 10 34 harmonic/cut 0.2 3.21 
pair_coeff 10 53 harmonic/cut 0.2 3.21 
pair_coeff 10 58 harmonic/cut 0.2 3.21 
pair_coeff 10 36 harmonic/cut 0.2 3.21 
pair_coeff 10 41 harmonic/cut 0.2 3.21 
pair_coeff 10 44 harmonic/cut 0.2 3.21 
pair_coeff 10 45 harmonic/cut 0.2 3.21 
pair_coeff 10 35 harmonic/cut 0.2 3.21 
pair_coeff 10 52 harmonic/cut 0.2 3.21 
pair_coeff 10 54 harmonic/cut 0.2 3.21 
pair_coeff 10 25 harmonic/cut 0.2 3.21 
pair_coeff 10 42 harmonic/cut 0.2 3.21 
pair_coeff 10 43 harmonic/cut 0.2 3.21 
pair_coeff 10 29 harmonic/cut 0.2 3.21 
pair_coeff 10 33 harmonic/cut 0.2 3.21 
pair_coeff 10 24 harmonic/cut 0.2 3.21 
pair_coeff 10 49 harmonic/cut 0.2 3.21 
pair_coeff 10 61 harmonic/cut 0.2 3.21 
pair_coeff 10 62 harmonic/cut 0.2 3.21 
pair_coeff 10 63 harmonic/cut 0.2 3.21 
pair_coeff 10 30 harmonic/cut 0.2 3.21 
pair_coeff 10 66 harmonic/cut 0.2 3.21 
pair_coeff 10 40 harmonic/cut 0.2 3.21 
pair_coeff 10 50 harmonic/cut 0.2 3.21 
pair_coeff 10 67 harmonic/cut 0.2 3.21 
pair_coeff 10 22 harmonic/cut 0.2 3.21 
pair_coeff 10 37 harmonic/cut 0.2 3.21 
pair_coeff 10 51 harmonic/cut 0.2 3.21 
pair_coeff 10 56 harmonic/cut 0.2 3.21 
pair_coeff 10 65 harmonic/cut 0.2 3.21 
pair_coeff 10 23 harmonic/cut 0.2 3.21 
pair_coeff 10 38 harmonic/cut 0.2 3.21 
pair_coeff 10 27 harmonic/cut 0.2 3.21 
pair_coeff 10 28 harmonic/cut 0.2 3.21 
pair_coeff 10 57 harmonic/cut 0.2 3.21 
pair_coeff 10 26 harmonic/cut 0.2 3.21 
pair_coeff 11 32 harmonic/cut 0.2 3.21 
pair_coeff 11 55 harmonic/cut 0.2 3.21 
pair_coeff 11 59 harmonic/cut 0.2 3.21 
pair_coeff 11 21 harmonic/cut 0.2 3.21 
pair_coeff 11 46 harmonic/cut 0.2 3.21 
pair_coeff 11 47 harmonic/cut 0.2 3.21 
pair_coeff 11 48 harmonic/cut 0.2 3.21 
pair_coeff 11 31 harmonic/cut 0.2 3.21 
pair_coeff 11 34 harmonic/cut 0.2 3.21 
pair_coeff 11 53 harmonic/cut 0.2 3.21 
pair_coeff 11 58 harmonic/cut 0.2 3.21 
pair_coeff 11 36 harmonic/cut 0.2 3.21 
pair_coeff 11 41 harmonic/cut 0.2 3.21 
pair_coeff 11 44 harmonic/cut 0.2 3.21 
pair_coeff 11 45 harmonic/cut 0.2 3.21 
pair_coeff 11 35 harmonic/cut 0.2 3.21 
pair_coeff 11 52 harmonic/cut 0.2 3.21 
pair_coeff 11 54 harmonic/cut 0.2 3.21 
pair_coeff 11 25 harmonic/cut 0.2 3.21 
pair_coeff 11 42 harmonic/cut 0.2 3.21 
pair_coeff 11 43 harmonic/cut 0.2 3.21 
pair_coeff 11 29 harmonic/cut 0.2 3.21 
pair_coeff 11 33 harmonic/cut 0.2 3.21 
pair_coeff 11 24 harmonic/cut 0.2 3.21 
pair_coeff 11 49 harmonic/cut 0.2 3.21 
pair_coeff 11 61 harmonic/cut 0.2 3.21 
pair_coeff 11 63 harmonic/cut 0.2 3.21 
pair_coeff 11 39 harmonic/cut 0.2 3.21 
pair_coeff 11 64 harmonic/cut 0.2 3.21 
pair_coeff 11 68 harmonic/cut 0.2 3.21 
pair_coeff 11 40 harmonic/cut 0.2 3.21 
pair_coeff 11 50 harmonic/cut 0.2 3.21 
pair_coeff 11 67 harmonic/cut 0.2 3.21 
pair_coeff 11 22 harmonic/cut 0.2 3.21 
pair_coeff 11 37 harmonic/cut 0.2 3.21 
pair_coeff 11 51 harmonic/cut 0.2 3.21 
pair_coeff 11 56 harmonic/cut 0.2 3.21 
pair_coeff 11 65 harmonic/cut 0.2 3.21 
pair_coeff 11 23 harmonic/cut 0.2 3.21 
pair_coeff 11 38 harmonic/cut 0.2 3.21 
pair_coeff 11 27 harmonic/cut 0.2 3.21 
pair_coeff 11 28 harmonic/cut 0.2 3.21 
pair_coeff 11 57 harmonic/cut 0.2 3.21 
pair_coeff 11 26 harmonic/cut 0.2 3.21 
pair_coeff 12 32 harmonic/cut 0.2 3.21 
pair_coeff 12 55 harmonic/cut 0.2 3.21 
pair_coeff 12 59 harmonic/cut 0.2 3.21 
pair_coeff 12 60 harmonic/cut 0.2 3.21 
pair_coeff 12 21 harmonic/cut 0.2 3.21 
pair_coeff 12 47 harmonic/cut 0.2 3.21 
pair_coeff 12 48 harmonic/cut 0.2 3.21 
pair_coeff 12 31 harmonic/cut 0.2 3.21 
pair_coeff 12 34 harmonic/cut 0.2 3.21 
pair_coeff 12 53 harmonic/cut 0.2 3.21 
pair_coeff 12 58 harmonic/cut 0.2 3.21 
pair_coeff 12 36 harmonic/cut 0.2 3.21 
pair_coeff 12 41 harmonic/cut 0.2 3.21 
pair_coeff 12 44 harmonic/cut 0.2 3.21 
pair_coeff 12 45 harmonic/cut 0.2 3.21 
pair_coeff 12 35 harmonic/cut 0.2 3.21 
pair_coeff 12 52 harmonic/cut 0.2 3.21 
pair_coeff 12 54 harmonic/cut 0.2 3.21 
pair_coeff 12 25 harmonic/cut 0.2 3.21 
pair_coeff 12 42 harmonic/cut 0.2 3.21 
pair_coeff 12 43 harmonic/cut 0.2 3.21 
pair_coeff 12 29 harmonic/cut 0.2 3.21 
pair_coeff 12 33 harmonic/cut 0.2 3.21 
pair_coeff 12 24 harmonic/cut 0.2 3.21 
pair_coeff 12 49 harmonic/cut 0.2 3.21 
pair_coeff 12 61 harmonic/cut 0.2 3.21 
pair_coeff 12 62 harmonic/cut 0.2 3.21 
pair_coeff 12 63 harmonic/cut 0.2 3.21 
pair_coeff 12 39 harmonic/cut 0.2 3.21 
pair_coeff 12 64 harmonic/cut 0.2 3.21 
pair_coeff 12 68 harmonic/cut 0.2 3.21 
pair_coeff 12 30 harmonic/cut 0.2 3.21 
pair_coeff 12 66 harmonic/cut 0.2 3.21 
pair_coeff 12 22 harmonic/cut 0.2 3.21 
pair_coeff 12 37 harmonic/cut 0.2 3.21 
pair_coeff 12 51 harmonic/cut 0.2 3.21 
pair_coeff 12 56 harmonic/cut 0.2 3.21 
pair_coeff 12 65 harmonic/cut 0.2 3.21 
pair_coeff 12 23 harmonic/cut 0.2 3.21 
pair_coeff 12 38 harmonic/cut 0.2 3.21 
pair_coeff 12 27 harmonic/cut 0.2 3.21 
pair_coeff 12 28 harmonic/cut 0.2 3.21 
pair_coeff 12 57 harmonic/cut 0.2 3.21 
pair_coeff 12 26 harmonic/cut 0.2 3.21 
pair_coeff 13 32 harmonic/cut 0.2 3.21 
pair_coeff 13 55 harmonic/cut 0.2 3.21 
pair_coeff 13 59 harmonic/cut 0.2 3.21 
pair_coeff 13 60 harmonic/cut 0.2 3.21 
pair_coeff 13 21 harmonic/cut 0.2 3.21 
pair_coeff 13 46 harmonic/cut 0.2 3.21 
pair_coeff 13 47 harmonic/cut 0.2 3.21 
pair_coeff 13 31 harmonic/cut 0.2 3.21 
pair_coeff 13 34 harmonic/cut 0.2 3.21 
pair_coeff 13 53 harmonic/cut 0.2 3.21 
pair_coeff 13 58 harmonic/cut 0.2 3.21 
pair_coeff 13 36 harmonic/cut 0.2 3.21 
pair_coeff 13 41 harmonic/cut 0.2 3.21 
pair_coeff 13 44 harmonic/cut 0.2 3.21 
pair_coeff 13 45 harmonic/cut 0.2 3.21 
pair_coeff 13 35 harmonic/cut 0.2 3.21 
pair_coeff 13 52 harmonic/cut 0.2 3.21 
pair_coeff 13 54 harmonic/cut 0.2 3.21 
pair_coeff 13 25 harmonic/cut 0.2 3.21 
pair_coeff 13 42 harmonic/cut 0.2 3.21 
pair_coeff 13 29 harmonic/cut 0.2 3.21 
pair_coeff 13 33 harmonic/cut 0.2 3.21 
pair_coeff 13 24 harmonic/cut 0.2 3.21 
pair_coeff 13 49 harmonic/cut 0.2 3.21 
pair_coeff 13 61 harmonic/cut 0.2 3.21 
pair_coeff 13 62 harmonic/cut 0.2 3.21 
pair_coeff 13 63 harmonic/cut 0.2 3.21 
pair_coeff 13 39 harmonic/cut 0.2 3.21 
pair_coeff 13 68 harmonic/cut 0.2 3.21 
pair_coeff 13 30 harmonic/cut 0.2 3.21 
pair_coeff 13 66 harmonic/cut 0.2 3.21 
pair_coeff 13 40 harmonic/cut 0.2 3.21 
pair_coeff 13 50 harmonic/cut 0.2 3.21 
pair_coeff 13 67 harmonic/cut 0.2 3.21 
pair_coeff 13 56 harmonic/cut 0.2 3.21 
pair_coeff 13 65 harmonic/cut 0.2 3.21 
pair_coeff 13 23 harmonic/cut 0.2 3.21 
pair_coeff 13 38 harmonic/cut 0.2 3.21 
pair_coeff 13 27 harmonic/cut 0.2 3.21 
pair_coeff 13 28 harmonic/cut 0.2 3.21 
pair_coeff 13 57 harmonic/cut 0.2 3.21 
pair_coeff 13 26 harmonic/cut 0.2 3.21 
pair_coeff 14 32 harmonic/cut 0.2 3.21 
pair_coeff 14 55 harmonic/cut 0.2 3.21 
pair_coeff 14 59 harmonic/cut 0.2 3.21 
pair_coeff 14 60 harmonic/cut 0.2 3.21 
pair_coeff 14 21 harmonic/cut 0.2 3.21 
pair_coeff 14 46 harmonic/cut 0.2 3.21 
pair_coeff 14 47 harmonic/cut 0.2 3.21 
pair_coeff 14 48 harmonic/cut 0.2 3.21 
pair_coeff 14 31 harmonic/cut 0.2 3.21 
pair_coeff 14 34 harmonic/cut 0.2 3.21 
pair_coeff 14 53 harmonic/cut 0.2 3.21 
pair_coeff 14 58 harmonic/cut 0.2 3.21 
pair_coeff 14 36 harmonic/cut 0.2 3.21 
pair_coeff 14 41 harmonic/cut 0.2 3.21 
pair_coeff 14 44 harmonic/cut 0.2 3.21 
pair_coeff 14 45 harmonic/cut 0.2 3.21 
pair_coeff 14 35 harmonic/cut 0.2 3.21 
pair_coeff 14 52 harmonic/cut 0.2 3.21 
pair_coeff 14 25 harmonic/cut 0.2 3.21 
pair_coeff 14 42 harmonic/cut 0.2 3.21 
pair_coeff 14 43 harmonic/cut 0.2 3.21 
pair_coeff 14 29 harmonic/cut 0.2 3.21 
pair_coeff 14 33 harmonic/cut 0.2 3.21 
pair_coeff 14 24 harmonic/cut 0.2 3.21 
pair_coeff 14 49 harmonic/cut 0.2 3.21 
pair_coeff 14 61 harmonic/cut 0.2 3.21 
pair_coeff 14 62 harmonic/cut 0.2 3.21 
pair_coeff 14 39 harmonic/cut 0.2 3.21 
pair_coeff 14 64 harmonic/cut 0.2 3.21 
pair_coeff 14 68 harmonic/cut 0.2 3.21 
pair_coeff 14 30 harmonic/cut 0.2 3.21 
pair_coeff 14 40 harmonic/cut 0.2 3.21 
pair_coeff 14 50 harmonic/cut 0.2 3.21 
pair_coeff 14 22 harmonic/cut 0.2 3.21 
pair_coeff 14 37 harmonic/cut 0.2 3.21 
pair_coeff 14 51 harmonic/cut 0.2 3.21 
pair_coeff 14 23 harmonic/cut 0.2 3.21 
pair_coeff 14 38 harmonic/cut 0.2 3.21 
pair_coeff 14 27 harmonic/cut 0.2 3.21 
pair_coeff 14 28 harmonic/cut 0.2 3.21 
pair_coeff 14 57 harmonic/cut 0.2 3.21 
pair_coeff 14 26 harmonic/cut 0.2 3.21 
pair_coeff 15 32 harmonic/cut 0.2 3.21 
pair_coeff 15 55 harmonic/cut 0.2 3.21 
pair_coeff 15 59 harmonic/cut 0.2 3.21 
pair_coeff 15 60 harmonic/cut 0.2 3.21 
pair_coeff 15 21 harmonic/cut 0.2 3.21 
pair_coeff 15 46 harmonic/cut 0.2 3.21 
pair_coeff 15 47 harmonic/cut 0.2 3.21 
pair_coeff 15 48 harmonic/cut 0.2 3.21 
pair_coeff 15 31 harmonic/cut 0.2 3.21 
pair_coeff 15 34 harmonic/cut 0.2 3.21 
pair_coeff 15 53 harmonic/cut 0.2 3.21 
pair_coeff 15 58 harmonic/cut 0.2 3.21 
pair_coeff 15 36 harmonic/cut 0.2 3.21 