make_exsolution.py
1.0000000000000000
 4.519946141832974  0.000000000000000  0.000000000000000 
 0.000000000000000  19.692222300474480  0.000000000000000 
 0.000000000000000  0.000000000000000  9.427496553715196 
 S  Mg 
 12  8 
Selective dynamics
Direct
 0.000681198860773 0.122635972608136 0.250705413656447 T T T
 0.500861000430362 0.377792338967653 0.750499453016894 T T T
 0.000002014224812 0.877990615061907 0.750494449250481 T T T
 0.500063124988313 0.622709178444821 0.250551370668105 T T T
 0.255066834740872 0.817546823168803 0.407531900709873 T T T
 0.249137503220259 0.683025712156326 0.907035377921919 T T T
 0.748116190553572 0.817644045758538 0.093681771625363 T T T
 0.753191243686415 0.682784642486326 0.593732716195408 T T T
 0.748128885824884 0.182785586755475 0.593984468597713 T T T
 0.753452465267959 0.317814247954879 0.093944339264083 T T T
 0.254316422940765 0.183142726467688 0.907538009452706 T T T
 0.249105135463796 0.317728444481130 0.407265078404792 T T T
 0.001178189146414 0.500320502580912 0.000357803850693 T T T
 0.501340094487498 0.000373802508990 0.501033124063916 T T T
 0.001914927583640 0.500463933767185 0.500235242182499 T T T
 0.501814271374839 0.000204934659992 0.000168791379887 T T T
 0.002117268667199 0.968473772386567 0.250588741744767 T T T
 0.502082975540378 0.532314324217782 0.750711459515501 T T T
 0.000745692998915 0.031982408258600 0.750328983615712 T T T
 0.502023723764048 0.468379728685927 0.250225350098721 T T T
