make_exsolution.py
1.0000000000000000
 4.519946141832974  0.000000000000000  0.000000000000000 
 0.000000000000000  19.692222300474480  0.000000000000000 
 0.000000000000000  0.000000000000000  9.427496553715196 
 S  Mg  O 
 12  8  48 
Selective dynamics
Cartesian
 0.003078982162572 2.414974834634313 2.363524423243897 T T T
 2.263864746489818 7.439570722367231 7.075331006881908 T T T
 0.000009104187668 17.289586369529392 7.075283833891294 T T T
 2.260258392463865 12.262527570481247 2.362072183502179 T T T
 1.152888355596553 16.099313782886767 3.842005589471331 T T T
 1.126088096466310 13.450294160722267 8.551072899456653 T T T
 3.381444889135400 16.101228311736460 0.883184579144044 T T T
 3.404383855962791 13.445546963190724 5.597413135760172 T T T
 3.381502271077986 3.599454407711477 5.599786530665292 T T T
 3.405564563442454 6.258468820985594 0.885659934653194 T T T
 1.149496534675874 3.606487282316703 8.555811456480935 T T T
 1.125941795950365 6.256779159906376 3.839490123109726 T T T
 0.005325351486683 9.852422558308435 0.003373194569314 T T T
 2.266030225824945 0.007361002103506 4.723488050409726 T T T
 0.008655369543563 9.855247037113344 4.715966021722396 T T T
 2.268173479817428 0.004035618881635 0.001591280152182 T T T
 0.009569940343530 19.071400818015398 2.362424499198618 T T T
 2.269388008173751 10.482452006223410 7.077329697416890 T T T
 0.003370492193438 0.629804693132882 7.073723907189750 T T T
 2.269120193335931 9.223437738319198 2.358998625707871 T T T
 2.266626377331784 8.961011364295320 7.076330352149399 T T T
 3.397329750746704 10.167437282265922 8.254099722850700 T T T
 3.398994759775144 10.168849521668378 5.896647859569644 T T T
 2.836885932068271 11.963999484707067 6.337371416588531 T T T
 1.697738052320030 11.966373083472838 7.814201298436771 T T T
 2.269254100754841 9.852944872271305 9.431912438419978 T T T
 3.395745056921920 0.316920156007258 -1.176090683186632 T T T
 1.138871710080479 -0.308392931788724 1.182007889675400 T T T
 2.824809184476414 -1.793479184928193 0.442387929648113 T T T
 1.708835007246651 1.805261450599169 -0.435046908541040 T T T
 3.394064362919035 -1.199300156031727 -1.175310719835860 T T T
 3.395599301906487 1.209505226757974 1.182557851698039 T T T
 3.955480485655952 17.586314564875927 1.622804539171331 T T T
 3.950700067578021 16.695407340632926 -0.734514070339929 T T T
 2.267166622365976 16.100271047311615 2.362595084307687 T T T
 2.264689292899898 10.742982654400222 2.360535404605025 T T T
 3.397195843327794 9.537930148313816 1.181185910138592 T T T
 3.398860852356234 9.539342387716271 3.537482323715134 T T T
 2.837342378389192 7.740953279652397 1.622329280180532 T T T
 1.697530994643148 7.740108449112787 3.099244374408798 T T T
 1.693173244465088 12.856410865601756 10.170320818337014 T T T
 0.005262905298063 13.447920561956495 7.074243017608412 T T T
 0.565706723976497 11.651358359515351 8.990971323870582 T T T
 2.832321124213328 12.854037266835984 3.979742659631175 T T T
 1.134456881003714 11.058887303797295 3.539019102612287 T T T
 1.694903271220091 6.848174941136803 5.457410564995817 T T T
 2.834714654966136 6.849019771676412 8.694243747625150 T T T
 1.134595048988251 8.645996640337833 8.253100377583209 T T T
 -0.553453458163310 11.650397000152033 5.156689578741284 T T T
 0.567298582746964 8.056013098509860 4.277728072416060 T T T
 0.006990360515123 9.853834797710888 2.359669608145855 T T T
 0.581229147970041 17.585357300451083 3.102215044334975 T T T
 0.576448729892110 16.694450076208078 5.458644711681313 T T T
 1.709459290710749 17.899448542732376 4.282746819940528 T T T
 0.006324461253051 20.589298976562098 2.362974461221257 T T T
 1.137800083084237 19.385492060296691 3.542956274804172 T T T
 0.006470216268484 19.696713905811379 4.718074203194184 T T T
 0.001689798190553 18.805806681568377 7.074503870540522 T T T
 -0.567682444296208 3.007214621172895 3.981655476954594 T T T
 0.576287758419223 3.010731058475508 0.745919663004818 T T T
 3.952409452552199 2.114629550422180 6.336755218927522 T T T
 2.265499402876930 3.602970845014090 7.077798993573113 T T T
 2.823766248451466 1.803407704907492 5.161637290537509 T T T
 -0.554528113451918 8.055445689647014 0.444516564611254 T T T
 3.394673429925678 0.318582847618194 5.898605978799738 T T T
 1.707763380250409 1.806924142210105 6.639649753445330 T T T
 1.695986010887655 3.132070081004941 4.281489086759725 T T T
 3.964440598734432 3.444136757059238 -0.734056355936126 T T T
