randspg
1.00000
    4.519946141832974    0.000000000000000    0.000000000000000
    0.000000000000000   19.692222300474480    0.000000000000000
    0.000000000000000    0.000000000000000    9.427496553715196
S Mg
   12    8
Selective dynamics
Direct
  0.000000000000000  0.122462883319758  0.250000000000000 T T T
  0.500000000000000  0.377537116680242  0.750000000000000 T T T
  0.000000000000000  0.877537116680242  0.750000000000000 T T T
  0.500000000000000  0.622462883319758  0.250000000000000 T T T
  0.252951219457358  0.817359175034719  0.406578077345002 T T T
  0.247048780542642  0.682640824965281  0.906578077345002 T T T
  0.747048780542642  0.817359175034719  0.093421922654998 T T T
  0.752951219457358  0.682640824965281  0.593421922654998 T T T
  0.747048780542642  0.182640824965281  0.593421922654998 T T T
  0.752951219457358  0.317359175034719  0.093421922654998 T T T
  0.252951219457358  0.182640824965281  0.906578077345002 T T T
  0.247048780542642  0.317359175034719  0.406578077345002 T T T
  0.000000000000000  0.500000000000000  0.000000000000000 T T T
  0.500000000000000  0.000000000000000  0.500000000000000 T T T
  0.000000000000000  0.500000000000000  0.500000000000000 T T T
  0.500000000000000  0.000000000000000  0.000000000000000 T T T
  0.000000000000000  0.968019890578188  0.250000000000000 T T T
  0.500000000000000  0.531980109421812  0.750000000000000 T T T
  0.000000000000000  0.031980109421812  0.750000000000000 T T T
  0.500000000000000  0.468019890578188  0.250000000000000 T T T
